&control
 calculation = 'relax',
 restart_mode = 'from_scratch',
 prefix = 'RuO2-110-0-0234',
 tstress = .FALSE.,
 tprnfor = .TRUE.,
 pseudo_dir = '/gpfs/group/ixd4/default/Simon/pseudopotentials/materialscloud/SSSP_1.3.0_PBE_efficiency',
 outdir = '/storage/home/mgm6007/ixd4/Maria/Strain2_Files/RuO2-110-0-0234',
 forc_conv_thr = 1.0D-4,
 etot_conv_thr = 1.0D-4,
 nstep = 200
/
&system
 ibrav = 0,
 nat = 48
 ntyp = 3,
 ecutwfc = 50,
 ecutrho = 500,
 occupations = 'smearing',
 smearing = 'mv',
 degauss = 0.03,
 tot_charge = 0.00,
/
&electrons
 electron_maxstep = 100,
 scf_must_converge = .FALSE.,
 diagonalization = 'david',
 mixing_beta = 0.7,
 mixing_mode = 'local-TF',
 conv_thr = 1.0D-9
/
&ions
 ion_dynamics = 'bfgs'
/

ATOMIC_SPECIES
 O 15.999400 O.pbe-n-kjpaw_psl.0.1.UPF
 Ru 101.070000 Ru_ONCV_PBE-1.0.oncvpsp.upf
 H 1.007940 H.pbe-rrkjus_psl.1.0.0.UPF

ATOMIC_POSITIONS crystal
O             0.0171194747        0.4181773151        0.2649995229
O             0.4778014150        0.4483475057        0.2723534464
O            -0.0020894626        0.0108445624        0.2987330845
O             0.4975449567        0.0065978572        0.3001805274
Ru            0.2506050053       -0.0063769717        0.3589338410
Ru            0.7454833433       -0.0061276303        0.3586589218
O             0.2448331681        0.3025670986        0.3641034787
O             0.7504709831        0.3042459468        0.3621270618
Ru           -0.0014315585        0.4928768293        0.3610901765
Ru            0.4983900555        0.4931561725        0.3516020386
O             0.2423330824        0.6855348897        0.3529227646
O             0.7524837675        0.6840575061        0.3520539004
O            -0.0029410888       -0.0102015680        0.4111991161
O             0.4982099717       -0.0084277685        0.4114484902
O            -0.0009202520        0.5101695783        0.4472074642
O             0.4981178225        0.5091276617        0.4424683354
Ru           -0.0032228070        0.0059810790        0.5000010000
Ru            0.4969378420        0.0052970756        0.5000010000
O             0.2469384512        0.1939321599        0.5000010000
O             0.7449149497        0.1946439779        0.5000010000
Ru            0.2549081999        0.5069806291        0.5000010000
Ru            0.7463493718        0.5067890009        0.5000010000
O             0.2470591104        0.8192239348        0.5000010000
O             0.7452499065        0.8183773612        0.5000010000
O            -0.0009202520        0.5101695783        0.5527935358
O             0.4981178225        0.5091276617        0.5575326646
O            -0.0029410888       -0.0102015680        0.5888018839
O             0.4982099717       -0.0084277685        0.5885525098
Ru            0.2506050053       -0.0063769717        0.6410671590
Ru            0.7454833433       -0.0061276303        0.6413420782
O             0.2448331681        0.3025670986        0.6358975213
O             0.7504709831        0.3042459468        0.6378739382
Ru           -0.0014315585        0.4928768293        0.6389108235
Ru            0.4983900555        0.4931561725        0.6483989614
O             0.2423330824        0.6855348897        0.6470782354
O             0.7524837675        0.6840575061        0.6479470996
O            -0.0020894626        0.0108445624        0.7012689155
O             0.4975449567        0.0065978572        0.6998214726
O             0.0171194747        0.4181773151        0.7350014771
O             0.4778014150        0.4483475057        0.7276475536
H             0.1633194601        0.4410890235        0.2549736819
H             0.1633194601        0.4410890235        0.7450263181
H             0.0059126452        0.2513170491        0.2727855828
H             0.0059126452        0.2513170491        0.7272144172
H             0.4957612518        0.1442739272        0.2760802095
H             0.4957612518        0.1442739272        0.7239197905
H            -0.0029365532        0.9173554062        0.2630220807
H            -0.0029365532        0.9173554062        0.7369779193


K_POINTS automatic
2 2 1 1 1 0

CELL_PARAMETERS bohr
12.246684433528877 0.000000 0.000000
0.000000 11.485686168390332 0.000000
0.000000 0.000000 41.825308
