&control
 calculation = 'relax',
 restart_mode = 'from_scratch',
 prefix = 'RuO2-110-0-012345',
 tstress = .FALSE.,
 tprnfor = .TRUE.,
 pseudo_dir = '/gpfs/group/ixd4/default/Simon/pseudopotentials/materialscloud/SSSP_1.3.0_PBE_efficiency',
 outdir = '/storage/home/mgm6007/ixd4/Maria/Strain2_Files/RuO2-110-0-012345',
 forc_conv_thr = 1.0D-4,
 etot_conv_thr = 1.0D-4,
 nstep = 200
/
&system
 ibrav = 0,
 nat = 52
 ntyp = 3,
 ecutwfc = 50,
 ecutrho = 500,
 occupations = 'smearing',
 smearing = 'mv',
 degauss = 0.03,
 tot_charge = 0.00,
/
&electrons
 electron_maxstep = 100,
 scf_must_converge = .FALSE.,
 diagonalization = 'david',
 mixing_beta = 0.7,
 mixing_mode = 'local-TF',
 conv_thr = 1.0D-9
/
&ions
 ion_dynamics = 'bfgs'
/

ATOMIC_SPECIES
 O 15.999400 O.pbe-n-kjpaw_psl.0.1.UPF
 Ru 101.070000 Ru_ONCV_PBE-1.0.oncvpsp.upf
 H 1.007940 H.pbe-rrkjus_psl.1.0.0.UPF

ATOMIC_POSITIONS crystal
    O            -0.0013108006        0.5000000000        0.2614537931
    O             0.4986908266        0.5000000000        0.2614536841
    O            -0.0032722063        0.0000000000        0.2878061583
    O             0.4967277958        0.0000000000        0.2878061577
    Ru            0.2478835564        0.0000000000        0.3597545739
    Ru            0.7478835502        0.0000000000        0.3597545751
    O             0.2489749984        0.3110791724        0.3545349536
    O             0.7489750689        0.3110791768        0.3545349516
    Ru           -0.0011867872        0.5000000000        0.3558957463
    Ru            0.4988131424        0.5000000000        0.3558957515
    O             0.2489749984        0.6889208276        0.3545349536
    O             0.7489750689        0.6889208232        0.3545349516
    O            -0.0014729828        0.0000000000        0.4122129905
    O             0.4985270269        0.0000000000        0.4122129833
    O            -0.0016237896        0.5000000000        0.4447212776
    O             0.4983762304        0.5000000000        0.4447212815
    Ru           -0.0007869693        0.0000000000        0.5000010000
    Ru            0.4992130334        0.0000000000        0.5000010000
    O             0.2495410457        0.1884697470        0.5000010000
    O             0.7495411189        0.1884697462        0.5000010000
    Ru            0.2490558156        0.5000000000        0.5000010000
    Ru            0.7490557958        0.5000000000        0.5000010000
    O             0.2495410457        0.8115312530        0.5000010000
    O             0.7495411189        0.8115312538        0.5000010000
    O            -0.0016237896        0.5000000000        0.5552797224
    O             0.4983762304        0.5000000000        0.5552797185
    O            -0.0014729828        0.0000000000        0.5877880095
    O             0.4985270269        0.0000000000        0.5877880167
    Ru            0.2478835564        0.0000000000        0.6402464261
    Ru            0.7478835502        0.0000000000        0.6402464249
    O             0.2489749984        0.3110791724        0.6454660464
    O             0.7489750689        0.3110791768        0.6454660484
    Ru           -0.0011867872        0.5000000000        0.6441052537
    Ru            0.4988131424        0.5000000000        0.6441052485
    O             0.2489749984        0.6889208276        0.6454660464
    O             0.7489750689        0.6889208232        0.6454660484
    O            -0.0032722063        0.0000000000        0.7121958417
    O             0.4967277958        0.0000000000        0.7121958423
    O            -0.0013108006        0.5000000000        0.7385472069
    O             0.4986908266        0.5000000000        0.7385473159
    H             0.1453930185        0.5000000000        0.2508600110
    H             0.1453930185        0.5000000000        0.7491399890
    H             0.6453915686        0.5000000000        0.2508601251
    H             0.6453915686        0.5000000000        0.7491398749
    H            -0.0067003218        0.1354440811        0.2628624142
    H            -0.0067003218        0.1354440811        0.7371375858
    H             0.4932996786        0.1354440805        0.2628624128
    H             0.4932996786        0.1354440805        0.7371375872
    H            -0.0067003218        0.8645559189        0.2628624142
    H            -0.0067003218        0.8645559189        0.7371375858
    H             0.4932996786        0.8645559195        0.2628624128
    H             0.4932996786        0.8645559195        0.7371375872


K_POINTS automatic
2 2 1 1 1 0

CELL_PARAMETERS bohr
12.246684433528877 0.000000 0.000000
0.000000 11.485686168390332 0.000000
0.000000 0.000000 41.825308
