&control
 calculation = 'relax',
 restart_mode = 'from_scratch',
 prefix = 'RuO2-110-0-023',
 tstress = .FALSE.,
 tprnfor = .TRUE.,
 pseudo_dir = '/gpfs/group/ixd4/default/Simon/pseudopotentials/materialscloud/SSSP_1.3.0_PBE_efficiency',
 outdir = '/storage/home/mgm6007/ixd4/Maria/Strain0_Files/RuO2-110-0-023',
 forc_conv_thr = 1.0D-4,
 etot_conv_thr = 1.0D-4,
 nstep = 200
/
&system
 ibrav = 0,
 nat = 46
 ntyp = 3,
 ecutwfc = 50,
 ecutrho = 500,
 occupations = 'smearing',
 smearing = 'mv',
 degauss = 0.03,
 tot_charge = 0.00,
/
&electrons
 electron_maxstep = 100,
 scf_must_converge = .FALSE.,
 diagonalization = 'david',
 mixing_beta = 0.7,
 mixing_mode = 'local-TF',
 conv_thr = 1.0D-9
/
&ions
 ion_dynamics = 'bfgs'
/

ATOMIC_SPECIES
 O 15.999400 O.pbe-n-kjpaw_psl.0.1.UPF
 Ru 101.070000 Ru_ONCV_PBE-1.0.oncvpsp.upf
 H 1.007940 H.pbe-rrkjus_psl.1.0.0.UPF

ATOMIC_POSITIONS crystal
    O             0.0095961375        0.4668646275        0.2708974618
    O             0.4787982030        0.5067940049        0.2731760116
    O            -0.0005787878        0.0235269614        0.3004108622
    O             0.4974790983        0.0067337953        0.3033698566
    Ru            0.2484288265        0.0061464620        0.3589340495
    Ru            0.7485199686        0.0061652896        0.3583491872
    O             0.2494297361        0.3085492988        0.3608745592
    O             0.7495331270        0.3117421828        0.3580520722
    Ru            0.0006174874        0.5066044169        0.3583750254
    Ru            0.5019677701        0.5033097003        0.3508597168
    O             0.2403397856        0.7052376059        0.3564641007
    O             0.7568469391        0.7004588943        0.3550097013
    O            -0.0035406547        0.0077199326        0.4111408923
    O             0.5004330196        0.0012600491        0.4121051624
    O             0.0000340033        0.5102780046        0.4462986078
    O             0.4968156352        0.5117101657        0.4405411929
    Ru           -0.0054689561        0.0088456516        0.5000010000
    Ru            0.5014646701        0.0101421628        0.5000010000
    O             0.2500734060        0.1999921995        0.5000010000
    O             0.7459067719        0.2077789874        0.5000010000
    Ru            0.2556967359        0.5107563544        0.5000010000
    Ru            0.7435491442        0.5102012266        0.5000010000
    O             0.2482611188        0.8199106469        0.5000010000
    O             0.7479798917        0.8116400520        0.5000010000
    O             0.0000340033        0.5102780046        0.5537023922
    O             0.4968156352        0.5117101657        0.5594598071
    O            -0.0035406547        0.0077199326        0.5888601077
    O             0.5004330196        0.0012600491        0.5878958376
    Ru            0.2484288265        0.0061464620        0.6410669505
    Ru            0.7485199686        0.0061652896        0.6416518128
    O             0.2494297361        0.3085492988        0.6391264408
    O             0.7495331270        0.3117421828        0.6419489278
    Ru            0.0006174874        0.5066044169        0.6416259746
    Ru            0.5019677701        0.5033097003        0.6491412832
    O             0.2403397856        0.7052376059        0.6435368993
    O             0.7568469391        0.7004588943        0.6449912987
    O            -0.0005787878        0.0235269614        0.6995911378
    O             0.4974790983        0.0067337953        0.6966321434
    O             0.0095961375        0.4668646275        0.7291035382
    O             0.4787982030        0.5067940049        0.7268249884
    H             0.1534401700        0.4903571653        0.2564755232
    H             0.1534401700        0.4903571653        0.7435244768
    H            -0.0002060945        0.1531109981        0.2776526949
    H            -0.0002060945        0.1531109981        0.7223473051
    H             0.4959492385       -0.0377701959        0.2612602303
    H             0.4959492385       -0.0377701959        0.7387397697


K_POINTS automatic
2 2 1 1 1 0

CELL_PARAMETERS bohr
12.104053288299633 0.000000 0.000000
0.000000 11.761936877845498 0.000000
0.000000 0.000000 41.825308
