&control
 calculation = 'relax',
 restart_mode = 'from_scratch',
 prefix = 'RuO2-110-0-012345',
 tstress = .FALSE.,
 tprnfor = .TRUE.,
 pseudo_dir = '/gpfs/group/ixd4/default/Simon/pseudopotentials/materialscloud/SSSP_1.3.0_PBE_efficiency',
 outdir = '/storage/home/mgm6007/ixd4/Maria/Strain0_Files/RuO2-110-0-012345',
 forc_conv_thr = 1.0D-4,
 etot_conv_thr = 1.0D-4,
 nstep = 200
/
&system
 ibrav = 0,
 nat = 52
 ntyp = 3,
 ecutwfc = 50,
 ecutrho = 500,
 occupations = 'smearing',
 smearing = 'mv',
 degauss = 0.03,
 tot_charge = 0.00,
/
&electrons
 electron_maxstep = 100,
 scf_must_converge = .FALSE.,
 diagonalization = 'david',
 mixing_beta = 0.7,
 mixing_mode = 'local-TF',
 conv_thr = 1.0D-9
/
&ions
 ion_dynamics = 'bfgs'
/

ATOMIC_SPECIES
 O 15.999400 O.pbe-n-kjpaw_psl.0.1.UPF
 Ru 101.070000 Ru_ONCV_PBE-1.0.oncvpsp.upf
 H 1.007940 H.pbe-rrkjus_psl.1.0.0.UPF

ATOMIC_POSITIONS crystal
    O             0.0014490969        0.5000000000        0.2633110828
    O             0.5014489875        0.5000000000        0.2633110281
    O            -0.0032311916        0.0000000000        0.2866578213
    O             0.4967688128        0.0000000000        0.2866578187
    Ru            0.2471517290        0.0000000000        0.3597955437
    Ru            0.7471517182        0.0000000000        0.3597955440
    O             0.2475809346        0.3032932660        0.3549237256
    O             0.7475809828        0.3032932468        0.3549237278
    Ru           -0.0029138753        0.5000000000        0.3564202487
    Ru            0.4970861558        0.5000000000        0.3564201518
    O             0.2475809346        0.6967067340        0.3549237256
    O             0.7475809828        0.6967067532        0.3549237278
    O            -0.0028141491        0.0000000000        0.4124657531
    O             0.4971858485        0.0000000000        0.4124657491
    O            -0.0030325073        0.5000000000        0.4438459981
    O             0.4969674808        0.5000000000        0.4438458213
    Ru           -0.0030298893        0.0000000000        0.5000010000
    Ru            0.4969700948        0.0000000000        0.5000010000
    O             0.2469045285        0.1948159416        0.5000010000
    O             0.7469044168        0.1948159236        0.5000010000
    Ru            0.2467996958        0.5000000000        0.5000010000
    Ru            0.7467992287        0.5000000000        0.5000010000
    O             0.2469045285        0.8051850584        0.5000010000
    O             0.7469044168        0.8051850764        0.5000010000
    O            -0.0030325073        0.5000000000        0.5561550019
    O             0.4969674808        0.5000000000        0.5561551787
    O            -0.0028141491        0.0000000000        0.5875352469
    O             0.4971858485        0.0000000000        0.5875352509
    Ru            0.2471517290        0.0000000000        0.6402054563
    Ru            0.7471517182        0.0000000000        0.6402054560
    O             0.2475809346        0.3032932660        0.6450772744
    O             0.7475809828        0.3032932468        0.6450772722
    Ru           -0.0029138753        0.5000000000        0.6435807513
    Ru            0.4970861558        0.5000000000        0.6435808482
    O             0.2475809346        0.6967067340        0.6450772744
    O             0.7475809828        0.6967067532        0.6450772722
    O            -0.0032311916        0.0000000000        0.7133441787
    O             0.4967688128        0.0000000000        0.7133441813
    O             0.0014490969        0.5000000000        0.7366899172
    O             0.5014489875        0.5000000000        0.7366899719
    H             0.1516868069        0.5000000000        0.2542119002
    H             0.1516868069        0.5000000000        0.7457880998
    H             0.6516870569        0.5000000000        0.2542118464
    H             0.6516870569        0.5000000000        0.7457881536
    H            -0.0048060861        0.1234604502        0.2615308567
    H            -0.0048060861        0.1234604502        0.7384691433
    H             0.4951939286        0.1234604470        0.2615308492
    H             0.4951939286        0.1234604470        0.7384691508
    H            -0.0048060861        0.8765395498        0.2615308567
    H            -0.0048060861        0.8765395498        0.7384691433
    H             0.4951939286        0.8765395530        0.2615308492
    H             0.4951939286        0.8765395530        0.7384691508


K_POINTS automatic
2 2 1 1 1 0

CELL_PARAMETERS bohr
12.104053288299633 0.000000 0.000000
0.000000 11.761936877845498 0.000000
0.000000 0.000000 41.825308
