&control
 calculation = 'relax',
 restart_mode = 'from_scratch',
 prefix = 'RuO2-110-0-025',
 tstress = .FALSE.,
 tprnfor = .TRUE.,
 pseudo_dir = '/gpfs/group/ixd4/default/Simon/pseudopotentials/materialscloud/SSSP_1.3.0_PBE_efficiency',
 outdir = '/storage/home/mgm6007/ixd4/Maria/Strain2_Files/RuO2-110-0-025',
 forc_conv_thr = 1.0D-4,
 etot_conv_thr = 1.0D-4,
 nstep = 200
/
&system
 ibrav = 0,
 nat = 46
 ntyp = 3,
 ecutwfc = 50,
 ecutrho = 500,
 occupations = 'smearing',
 smearing = 'mv',
 degauss = 0.03,
 tot_charge = 0.00,
/
&electrons
 electron_maxstep = 100,
 scf_must_converge = .FALSE.,
 diagonalization = 'david',
 mixing_beta = 0.7,
 mixing_mode = 'local-TF',
 conv_thr = 1.0D-9
/
&ions
 ion_dynamics = 'bfgs'
/

ATOMIC_SPECIES
 O 15.999400 O.pbe-n-kjpaw_psl.0.1.UPF
 Ru 101.070000 Ru_ONCV_PBE-1.0.oncvpsp.upf
 H 1.007940 H.pbe-rrkjus_psl.1.0.0.UPF

ATOMIC_POSITIONS crystal
    O            -0.0039743185        0.4700160071        0.2688505399
    O             0.4901046844        0.5075468398        0.2722285798
    O            -0.0006309333       -0.0022099824        0.3022154498
    O             0.5000634311        0.0008321971        0.3034736537
    Ru            0.2497527458       -0.0018341443        0.3593658219
    Ru            0.7495520722       -0.0017279197        0.3593566240
    O             0.2471678517        0.3074301285        0.3592597352
    O             0.7521856820        0.3075035618        0.3574252994
    Ru           -0.0003376446        0.4983478898        0.3570765188
    Ru            0.5004597538        0.4971386641        0.3504334553
    O             0.2442218307        0.6901170130        0.3571463472
    O             0.7542754959        0.6886874696        0.3569672572
    O            -0.0001025160        0.0007874202        0.4119427361
    O             0.4998400682       -0.0036630837        0.4118970069
    O             0.0008768642        0.5000819525        0.4462321995
    O             0.4998189321        0.5010041973        0.4415950373
    Ru            0.0013877292       -0.0000219441        0.5000010000
    Ru            0.5013101617        0.0013174252        0.5000010000
    O             0.2524567845        0.1888770973        0.5000010000
    O             0.7520321242        0.1884955487        0.5000010000
    Ru            0.2519522794        0.5008976575        0.5000010000
    Ru            0.7450651619        0.5006503095        0.5000010000
    O             0.2532607096        0.8127885601        0.5000010000
    O             0.7515545867        0.8124638956        0.5000010000
    O             0.0008768642        0.5000819525        0.5537688005
    O             0.4998189321        0.5010041973        0.5584059627
    O            -0.0001025160        0.0007874202        0.5880582639
    O             0.4998400682       -0.0036630837        0.5881039931
    Ru            0.2497527458       -0.0018341443        0.6406351781
    Ru            0.7495520722       -0.0017279197        0.6406443760
    O             0.2471678517        0.3074301285        0.6407412648
    O             0.7521856820        0.3075035618        0.6425757006
    Ru           -0.0003376446        0.4983478898        0.6429244812
    Ru            0.5004597538        0.4971386641        0.6495675447
    O             0.2442218307        0.6901170130        0.6428546528
    O             0.7542754959        0.6886874696        0.6430337428
    O            -0.0006309333       -0.0022099824        0.6977865502
    O             0.5000634311        0.0008321971        0.6965283463
    O            -0.0039743185        0.4700160071        0.7311504601
    O             0.4901046844        0.5075468398        0.7277724202
    H             0.1288295627        0.5092715092        0.2509190259
    H             0.1288295627        0.5092715092        0.7490809741
    H            -0.0007305094        0.1164048910        0.2721195381
    H            -0.0007305094        0.1164048910        0.7278804619
    H             0.5017521784        0.9115321141        0.2668326613
    H             0.5017521784        0.9115321141        0.7331673387


K_POINTS automatic
2 2 1 1 1 0

CELL_PARAMETERS bohr
12.246684433528877 0.000000 0.000000
0.000000 11.485686168390332 0.000000
0.000000 0.000000 41.825308
