&control
 calculation = 'relax',
 restart_mode = 'from_scratch',
 prefix = 'RuO2-110-0-012',
 tstress = .FALSE.,
 tprnfor = .TRUE.,
 pseudo_dir = '/gpfs/group/ixd4/default/Simon/pseudopotentials/materialscloud/SSSP_1.3.0_PBE_efficiency',
 outdir = '/storage/home/mgm6007/ixd4/Maria/Strain2_Files/RuO2-110-0-012',
 forc_conv_thr = 1.0D-4,
 etot_conv_thr = 1.0D-4,
 nstep = 200
/
&system
 ibrav = 0,
 nat = 46
 ntyp = 3,
 ecutwfc = 50,
 ecutrho = 500,
 occupations = 'smearing',
 smearing = 'mv',
 degauss = 0.03,
 tot_charge = 0.00,
/
&electrons
 electron_maxstep = 100,
 scf_must_converge = .FALSE.,
 diagonalization = 'david',
 mixing_beta = 0.7,
 mixing_mode = 'local-TF',
 conv_thr = 1.0D-9
/
&ions
 ion_dynamics = 'bfgs'
/

ATOMIC_SPECIES
 O 15.999400 O.pbe-n-kjpaw_psl.0.1.UPF
 Ru 101.070000 Ru_ONCV_PBE-1.0.oncvpsp.upf
 H 1.007940 H.pbe-rrkjus_psl.1.0.0.UPF

ATOMIC_POSITIONS crystal
    O            -0.0098827378        0.4743932990        0.2696008707
    O             0.4898567088        0.5018949122        0.2696856831
    O            -0.0002171777        0.0023878411        0.2985471584
    O             0.4991948078       -0.0001378425        0.3082079578
    Ru            0.2552957337        0.0004927548        0.3559110847
    Ru            0.7436169364        0.0008684348        0.3558496070
    O             0.2495922558        0.3125849577        0.3585478233
    O             0.7486001483        0.3126158984        0.3577647620
    Ru           -0.0009427812        0.4996665029        0.3578687720
    Ru            0.4995732375        0.5009757705        0.3566956623
    O             0.2461212338        0.6879771378        0.3561553602
    O             0.7517337669        0.6879469981        0.3568241282
    O            -0.0002349296       -0.0000974252        0.4115764331
    O             0.5001746143       -0.0021289778        0.4114277553
    O             0.0021288078        0.5010097120        0.4457565016
    O             0.5020542506        0.5021956081        0.4447077574
    Ru            0.0012023846        0.0003736123        0.5000010000
    Ru            0.5014194345        0.0006231781        0.5000010000
    O             0.2511122578        0.1888914132        0.5000010000
    O             0.7516179636        0.1888001596        0.5000010000
    Ru            0.2523955000        0.5006642600        0.5000010000
    Ru            0.7501123236        0.5008068771        0.5000010000
    O             0.2507765483        0.8126234742        0.5000010000
    O             0.7521923425        0.8124738992        0.5000010000
    O             0.0021288078        0.5010097120        0.5542444984
    O             0.5020542506        0.5021956081        0.5552932426
    O            -0.0002349296       -0.0000974252        0.5884245669
    O             0.5001746143       -0.0021289778        0.5885732447
    Ru            0.2552957337        0.0004927548        0.6440899153
    Ru            0.7436169364        0.0008684348        0.6441513930
    O             0.2495922558        0.3125849577        0.6414531767
    O             0.7486001483        0.3126158984        0.6422362380
    Ru           -0.0009427812        0.4996665029        0.6421322280
    Ru            0.4995732375        0.5009757705        0.6433053377
    O             0.2461212338        0.6879771378        0.6438456398
    O             0.7517337669        0.6879469981        0.6431768718
    O            -0.0002171777        0.0023878411        0.7014548416
    O             0.4991948078       -0.0001378425        0.6917940422
    O            -0.0098827378        0.4743932990        0.7304001293
    O             0.4898567088        0.5018949122        0.7303153169
    H             0.1259089900        0.5049592461        0.2520629982
    H             0.1259089900        0.5049592461        0.7479370018
    H             0.6277456044        0.4979766629        0.2515005608
    H             0.6277456044        0.4979766629        0.7484994392
    H            -0.0004638472        0.1260070722        0.2696984971
    H            -0.0004638472        0.1260070722        0.7303015029


K_POINTS automatic
2 2 1 1 1 0

CELL_PARAMETERS bohr
12.246684433528877 0.000000 0.000000
0.000000 11.485686168390332 0.000000
0.000000 0.000000 41.825308
