&control
 calculation = 'relax',
 restart_mode = 'from_scratch',
 prefix = 'RuO2-110-0-234',
 tstress = .FALSE.,
 tprnfor = .TRUE.,
 pseudo_dir = '/gpfs/group/ixd4/default/Simon/pseudopotentials/materialscloud/SSSP_1.3.0_PBE_efficiency',
 outdir = '/storage/home/mgm6007/ixd4/Maria/Strain2_Files/RuO2-110-0-234',
 forc_conv_thr = 1.0D-4,
 etot_conv_thr = 1.0D-4,
 nstep = 200
/
&system
 ibrav = 0,
 nat = 46
 ntyp = 3,
 ecutwfc = 50,
 ecutrho = 500,
 occupations = 'smearing',
 smearing = 'mv',
 degauss = 0.03,
 tot_charge = 0.00,
/
&electrons
 electron_maxstep = 100,
 scf_must_converge = .FALSE.,
 diagonalization = 'david',
 mixing_beta = 0.7,
 mixing_mode = 'local-TF',
 conv_thr = 1.0D-9
/
&ions
 ion_dynamics = 'bfgs'
/

ATOMIC_SPECIES
 O 15.999400 O.pbe-n-kjpaw_psl.0.1.UPF
 Ru 101.070000 Ru_ONCV_PBE-1.0.oncvpsp.upf
 H 1.007940 H.pbe-rrkjus_psl.1.0.0.UPF

ATOMIC_POSITIONS crystal
    O             0.0000000000        0.4204914782        0.2735716713
    O             0.5000000000        0.4415116537        0.2736078583
    O             0.0000000000        0.0169951686        0.2927694498
    O             0.5000000000        0.0097183838        0.3016195108
    Ru            0.2540078124       -0.0046736531        0.3602124246
    Ru            0.7459921876       -0.0046736531        0.3602124246
    O             0.2526103932        0.3051455327        0.3652733792
    O             0.7473896068        0.3051455327        0.3652733792
    Ru            0.0000000000        0.4919346403        0.3524770799
    Ru            0.5000000000        0.4936791897        0.3517038577
    O             0.2470524259        0.6865652218        0.3504875232
    O             0.7529475741        0.6865652218        0.3504875232
    O             0.0000000000       -0.0098724084        0.4117288528
    O             0.5000000000       -0.0106875664        0.4124913082
    O             0.0000000000        0.5114221624        0.4437149194
    O             0.5000000000        0.5114438670        0.4452627051
    Ru            0.0000000000        0.0044916620        0.5000010000
    Ru            0.5000000000        0.0047466924        0.5000010000
    O             0.2487960032        0.1935061783        0.5000010000
    O             0.7512039968        0.1935061783        0.5000010000
    Ru            0.2488007053        0.5051247593        0.5000010000
    Ru            0.7511992947        0.5051247593        0.5000010000
    O             0.2498020131        0.8173697826        0.5000010000
    O             0.7501979869        0.8173697826        0.5000010000
    O             0.0000000000        0.5114221624        0.5562860806
    O             0.5000000000        0.5114438670        0.5547382949
    O             0.0000000000       -0.0098724084        0.5882721472
    O             0.5000000000       -0.0106875664        0.5875096918
    Ru            0.2540078124       -0.0046736531        0.6397885754
    Ru            0.7459921876       -0.0046736531        0.6397885754
    O             0.2526103932        0.3051455327        0.6347276208
    O             0.7473896068        0.3051455327        0.6347276208
    Ru            0.0000000000        0.4919346403        0.6475239201
    Ru            0.5000000000        0.4936791897        0.6482971423
    O             0.2470524259        0.6865652218        0.6495134768
    O             0.7529475741        0.6865652218        0.6495134768
    O             0.0000000000        0.0169951686        0.7072325502
    O             0.5000000000        0.0097183838        0.6983824892
    O             0.0000000000        0.4204914782        0.7264293287
    O             0.5000000000        0.4415116537        0.7263931417
    H             0.0000000000        0.1787369074        0.2751324077
    H             0.0000000000        0.1787369074        0.7248675923
    H             0.5000000000        0.1515884320        0.2790156700
    H             0.5000000000        0.1515884320        0.7209843300
    H             0.0000000000        0.9125609916        0.2585804373
    H             0.0000000000        0.9125609916        0.7414195627


K_POINTS automatic
2 2 1 1 1 0

CELL_PARAMETERS bohr
12.246684433528877 0.000000 0.000000
0.000000 11.485686168390332 0.000000
0.000000 0.000000 41.825308
