&control
 calculation = 'relax',
 restart_mode = 'from_scratch',
 prefix = 'RuO2-110-0-012',
 tstress = .FALSE.,
 tprnfor = .TRUE.,
 pseudo_dir = '/gpfs/group/ixd4/default/Simon/pseudopotentials/materialscloud/SSSP_1.3.0_PBE_efficiency',
 outdir = '/storage/home/mgm6007/ixd4/Maria/Strain1_Files/RuO2-110-0-012',
 forc_conv_thr = 1.0D-4,
 etot_conv_thr = 1.0D-4,
 nstep = 200
/
&system
 ibrav = 0,
 nat = 46
 ntyp = 3,
 ecutwfc = 50,
 ecutrho = 500,
 occupations = 'smearing',
 smearing = 'mv',
 degauss = 0.03,
 tot_charge = 0.00,
/
&electrons
 electron_maxstep = 100,
 scf_must_converge = .FALSE.,
 diagonalization = 'david',
 mixing_beta = 0.7,
 mixing_mode = 'local-TF',
 conv_thr = 1.0D-9
/
&ions
 ion_dynamics = 'bfgs'
/

ATOMIC_SPECIES
 O 15.999400 O.pbe-n-kjpaw_psl.0.1.UPF
 Ru 101.070000 Ru_ONCV_PBE-1.0.oncvpsp.upf
 H 1.007940 H.pbe-rrkjus_psl.1.0.0.UPF

ATOMIC_POSITIONS crystal
    O            -0.0078026759        0.4479944696        0.2694638499
    O             0.4904820471        0.4957728316        0.2694481911
    O            -0.0008758236        0.0102943200        0.2992853044
    O             0.4998120869        0.0028717474        0.3081266004
    Ru            0.2567356616        0.0014639277        0.3558148828
    Ru            0.7426562796        0.0015874188        0.3558662801
    O             0.2513916176        0.3155934747        0.3604303289
    O             0.7480556311        0.3155207143        0.3593953940
    Ru           -0.0004753162        0.4995517414        0.3580913030
    Ru            0.4999390809        0.5027852697        0.3564998248
    O             0.2447335224        0.6869420660        0.3544423912
    O             0.7543282158        0.6865675863        0.3549352904
    O            -0.0002425689        0.0000062137        0.4112580041
    O             0.4997360565       -0.0027889499        0.4115195695
    O             0.0033921046        0.5034685069        0.4460137133
    O             0.5030650320        0.5064954762        0.4450861549
    Ru            0.0002090421        0.0019494778        0.5000010000
    Ru            0.5002233294        0.0022662450        0.5000010000
    O             0.2499702098        0.1888039248        0.5000010000
    O             0.7496973701        0.1885440528        0.5000010000
    Ru            0.2532526271        0.5027461205        0.5000010000
    Ru            0.7516578694        0.5026332093        0.5000010000
    O             0.2497250744        0.8167006304        0.5000010000
    O             0.7503818270        0.8164372614        0.5000010000
    O             0.0033921046        0.5034685069        0.5539872867
    O             0.5030650320        0.5064954762        0.5549148451
    O            -0.0002425689        0.0000062137        0.5887429959
    O             0.4997360565       -0.0027889499        0.5884814305
    Ru            0.2567356616        0.0014639277        0.6441861172
    Ru            0.7426562796        0.0015874188        0.6441347199
    O             0.2513916176        0.3155934747        0.6395706711
    O             0.7480556311        0.3155207143        0.6406056060
    Ru           -0.0004753162        0.4995517414        0.6419096970
    Ru            0.4999390809        0.5027852697        0.6435011752
    O             0.2447335224        0.6869420660        0.6455586088
    O             0.7543282158        0.6865675863        0.6450657096
    O            -0.0008758236        0.0102943200        0.7007166956
    O             0.4998120869        0.0028717474        0.6918753996
    O            -0.0078026759        0.4479944696        0.7305371501
    O             0.4904820471        0.4957728316        0.7305528089
    H             0.1238345915        0.4832911329        0.2508235821
    H             0.1238345915        0.4832911329        0.7491764179
    H             0.6269092544        0.4890768048        0.2513733686
    H             0.6269092544        0.4890768048        0.7486266314
    H            -0.0029634721        0.1576817869        0.2766585681
    H            -0.0029634721        0.1576817869        0.7233414319


K_POINTS automatic
2 2 1 1 1 0

CELL_PARAMETERS bohr
12.389315578758117 0.000000 0.000000
0.000000 11.209435458935166 0.000000
0.000000 0.000000 41.825308
