&control
 calculation = 'relax',
 restart_mode = 'from_scratch',
 prefix = 'RuO2-110-0-01234',
 tstress = .FALSE.,
 tprnfor = .TRUE.,
 pseudo_dir = '/gpfs/group/ixd4/default/Simon/pseudopotentials/materialscloud/SSSP_1.3.0_PBE_efficiency',
 outdir = '/storage/home/mgm6007/ixd4/Maria/Strain0_Files/RuO2-110-0-01234',
 forc_conv_thr = 1.0D-4,
 etot_conv_thr = 1.0D-4,
 nstep = 200
/
&system
 ibrav = 0,
 nat = 50
 ntyp = 3,
 ecutwfc = 50,
 ecutrho = 500,
 occupations = 'smearing',
 smearing = 'mv',
 degauss = 0.03,
 tot_charge = 0.00,
/
&electrons
 electron_maxstep = 100,
 scf_must_converge = .FALSE.,
 diagonalization = 'david',
 mixing_beta = 0.7,
 mixing_mode = 'local-TF',
 conv_thr = 1.0D-9
/
&ions
 ion_dynamics = 'bfgs'
/

ATOMIC_SPECIES
 O 15.999400 O.pbe-n-kjpaw_psl.0.1.UPF
 Ru 101.070000 Ru_ONCV_PBE-1.0.oncvpsp.upf
 H 1.007940 H.pbe-rrkjus_psl.1.0.0.UPF
 
ATOMIC_POSITIONS crystal
    O             0.0405757399        0.4375611124        0.2623327800
    O             0.4564738218        0.4314804485        0.2663282693
    O            -0.0010160274        0.0137095577        0.2970789506
    O             0.4969066947        0.0127557638        0.2991281328
    Ru            0.2483418865       -0.0078027274        0.3586567790
    Ru            0.7480009802       -0.0084680255        0.3578498232
    O             0.2475740574        0.2920647472        0.3621611954
    O             0.7496737491        0.3007006135        0.3582102110
    Ru            0.0034237924        0.4907002549        0.3600600344
    Ru            0.4933856700        0.4894270385        0.3569165470
    O             0.2470595016        0.6913208906        0.3538762277
    O             0.7497528908        0.6828132176        0.3513820997
    O            -0.0036563033       -0.0115111527        0.4117800927
    O             0.4996243768       -0.0091354080        0.4113091076
    O            -0.0024046771        0.5059159664        0.4459775616
    O             0.4993396918        0.5057854593        0.4436400112
    Ru           -0.0028380313        0.0021939994        0.5000010000
    Ru            0.4993253237        0.0021660421        0.5000010000
    O             0.2485967816        0.1958877443        0.5000010000
    O             0.7474699306        0.1981032568        0.5000010000
    Ru            0.2516542899        0.5037342712        0.5000010000
    Ru            0.7452230207        0.5045707314        0.5000010000
    O             0.2495027120        0.8100338519        0.5000010000
    O             0.7472805968        0.8084194011        0.5000010000
    O            -0.0024046771        0.5059159664        0.5540234384
    O             0.4993396918        0.5057854593        0.5563609888
    O            -0.0036563033       -0.0115111527        0.5882209073
    O             0.4996243768       -0.0091354080        0.5886918924
    Ru            0.2483418865       -0.0078027274        0.6413442210
    Ru            0.7480009802       -0.0084680255        0.6421511768
    O             0.2475740574        0.2920647472        0.6378398046
    O             0.7496737491        0.3007006135        0.6417907890
    Ru            0.0034237924        0.4907002549        0.6399409656
    Ru            0.4933856700        0.4894270385        0.6430844530
    O             0.2470595016        0.6913208906        0.6461247723
    O             0.7497528908        0.6828132176        0.6486189003
    O            -0.0010160274        0.0137095577        0.7029230494
    O             0.4969066947        0.0127557638        0.7008738672
    O             0.0405757399        0.4375611124        0.7376682200
    O             0.4564738218        0.4314804485        0.7336727307
    H             0.1995372772        0.4442973406        0.2571706292
    H             0.1995372772        0.4442973406        0.7428293708
    H             0.5655914445        0.4923188330        0.2414385396
    H             0.5655914445        0.4923188330        0.7585614604
    H             0.0094425021        0.2897555194        0.2614390332
    H             0.0094425021        0.2897555194        0.7385609668
    H             0.4943101777        0.1503726453        0.2801528272
    H             0.4943101777        0.1503726453        0.7198471728
    H             0.0002254412        0.9076002558        0.2662504736
    H             0.0002254412        0.9076002558        0.7337495264


K_POINTS automatic
2 2 1 1 1 0

CELL_PARAMETERS bohr
12.104053288299633 0.000000 0.000000
0.000000 11.761936877845498 0.000000
0.000000 0.000000 41.825308
