&control
 calculation = 'relax',
 restart_mode = 'from_scratch',
 prefix = 'RuO2-110-0-02345',
 tstress = .FALSE.,
 tprnfor = .TRUE.,
 pseudo_dir = '/gpfs/group/ixd4/default/Simon/pseudopotentials/materialscloud/SSSP_1.3.0_PBE_efficiency',
 outdir = '/storage/home/mgm6007/ixd4/Maria/Strain1_Files/RuO2-110-0-02345',
 forc_conv_thr = 1.0D-4,
 etot_conv_thr = 1.0D-4,
 nstep = 200
/
&system
 ibrav = 0,
 nat = 50
 ntyp = 3,
 ecutwfc = 50,
 ecutrho = 500,
 occupations = 'smearing',
 smearing = 'mv',
 degauss = 0.03,
 tot_charge = 0.00,
/
&electrons
 electron_maxstep = 100,
 scf_must_converge = .FALSE.,
 diagonalization = 'david',
 mixing_beta = 0.7,
 mixing_mode = 'local-TF',
 conv_thr = 1.0D-9
/
&ions
 ion_dynamics = 'bfgs'
/

ATOMIC_SPECIES
 O 15.999400 O.pbe-n-kjpaw_psl.0.1.UPF
 Ru 101.070000 Ru_ONCV_PBE-1.0.oncvpsp.upf
 H 1.007940 H.pbe-rrkjus_psl.1.0.0.UPF

ATOMIC_POSITIONS crystal
    O             0.0226662103        0.5000000000        0.2631795187
    O             0.4767774912        0.5000000000        0.2673234196
    O            -0.0019182992        0.0000000000        0.2902643627
    O             0.4964763521        0.0000000000        0.2903479675
    Ru            0.2475095109        0.0000000000        0.3608662314
    Ru            0.7479971517        0.0000000000        0.3598106765
    O             0.2469673354        0.3111535943        0.3562133845
    O             0.7499542100        0.3123218422        0.3530617056
    Ru           -0.0002155048        0.5000000000        0.3559382028
    Ru            0.4990660126        0.5000000000        0.3498498747
    O             0.2469673354        0.6888464057        0.3562133845
    O             0.7499542100        0.6876781578        0.3530617056
    O            -0.0038540147        0.0000000000        0.4123719012
    O             0.4984051474        0.0000000000        0.4124056095
    O            -0.0033132653        0.5000000000        0.4453980291
    O             0.4977686007        0.5000000000        0.4426676182
    Ru           -0.0035213752        0.0000000000        0.5000010000
    Ru            0.4969915443        0.0000000000        0.5000010000
    O             0.2463238562        0.1866292169        0.5000010000
    O             0.7461533366        0.1868252586        0.5000010000
    Ru            0.2513579878        0.5000000000        0.5000010000
    Ru            0.7456502382        0.5000000000        0.5000010000
    O             0.2463238562        0.8133717831        0.5000010000
    O             0.7461533366        0.8131757414        0.5000010000
    O            -0.0033132653        0.5000000000        0.5546029709
    O             0.4977686007        0.5000000000        0.5573333818
    O            -0.0038540147        0.0000000000        0.5876290988
    O             0.4984051474        0.0000000000        0.5875953905
    Ru            0.2475095109        0.0000000000        0.6391347686
    Ru            0.7479971517        0.0000000000        0.6401903235
    O             0.2469673354        0.3111535943        0.6437876155
    O             0.7499542100        0.3123218422        0.6469392944
    Ru           -0.0002155048        0.5000000000        0.6440627972
    Ru            0.4990660126        0.5000000000        0.6501511253
    O             0.2469673354        0.6888464057        0.6437876155
    O             0.7499542100        0.6876781578        0.6469392944
    O            -0.0019182992        0.0000000000        0.7097376373
    O             0.4964763521        0.0000000000        0.7096540325
    O             0.0226662103        0.5000000000        0.7368214813
    O             0.4767774912        0.5000000000        0.7326775804
    H             0.1719322849        0.5000000000        0.2568346752
    H             0.1719322849        0.5000000000        0.7431653248
    H            -0.0008214995        0.1395338636        0.2652989658
    H            -0.0008214995        0.1395338636        0.7347010342
    H             0.4942104201        0.1385289199        0.2651741206
    H             0.4942104201        0.1385289199        0.7348258794
    H            -0.0008214995        0.8604661364        0.2652989658
    H            -0.0008214995        0.8604661364        0.7347010342
    H             0.4942104201        0.8614710801        0.2651741206
    H             0.4942104201        0.8614710801        0.7348258794

K_POINTS automatic
2 2 1 1 1 0

CELL_PARAMETERS bohr
12.389315578758117 0.000000 0.000000
0.000000 11.209435458935166 0.000000
0.000000 0.000000 41.825308
