&control
 calculation = 'relax',
 restart_mode = 'from_scratch',
 prefix = 'RuO2-110-0-02345',
 tstress = .FALSE.,
 tprnfor = .TRUE.,
 pseudo_dir = '/gpfs/group/ixd4/default/Simon/pseudopotentials/materialscloud/SSSP_1.3.0_PBE_efficiency',
 outdir = '/storage/home/mgm6007/ixd4/Maria/Strain2_Files/RuO2-110-0-02345',
 forc_conv_thr = 1.0D-4,
 etot_conv_thr = 1.0D-4,
 nstep = 200
/
&system
 ibrav = 0,
 nat = 50
 ntyp = 3,
 ecutwfc = 50,
 ecutrho = 500,
 occupations = 'smearing',
 smearing = 'mv',
 degauss = 0.03,
 tot_charge = 0.00,
/
&electrons
 electron_maxstep = 100,
 scf_must_converge = .FALSE.,
 diagonalization = 'david',
 mixing_beta = 0.7,
 mixing_mode = 'local-TF',
 conv_thr = 1.0D-9
/
&ions
 ion_dynamics = 'bfgs'
/

ATOMIC_SPECIES
 O 15.999400 O.pbe-n-kjpaw_psl.0.1.UPF
 Ru 101.070000 Ru_ONCV_PBE-1.0.oncvpsp.upf
 H 1.007940 H.pbe-rrkjus_psl.1.0.0.UPF

ATOMIC_POSITIONS crystal
    O             0.0155931176        0.5000000000        0.2645301009
    O             0.4783055808        0.5000000000        0.2670158745
    O            -0.0031763649        0.0000000000        0.2887002782
    O             0.4985621339        0.0000000000        0.2888219068
    Ru            0.2480581961        0.0000000000        0.3606893326
    Ru            0.7480160970        0.0000000000        0.3596978161
    O             0.2460276487        0.3085683248        0.3565122055
    O             0.7496440605        0.3098087904        0.3539536255
    Ru           -0.0015509827        0.5000000000        0.3568763276
    Ru            0.4978260754        0.5000000000        0.3491159486
    O             0.2460276487        0.6914316752        0.3565122055
    O             0.7496440605        0.6901912096        0.3539536255
    O            -0.0025069392        0.0000000000        0.4124710194
    O             0.4991157005        0.0000000000        0.4125171923
    O            -0.0012228343        0.5000000000        0.4458280792
    O             0.5000257409        0.5000000000        0.4411285307
    Ru           -0.0009599571        0.0000000000        0.5000010000
    Ru            0.4993453550        0.0000000000        0.5000010000
    O             0.2501279926        0.1886097118        0.5000010000
    O             0.7490978161        0.1886725179        0.5000010000
    Ru            0.2538461618        0.5000000000        0.5000010000
    Ru            0.7443773164        0.5000000000        0.5000010000
    O             0.2501279926        0.8113912882        0.5000010000
    O             0.7490978161        0.8113284821        0.5000010000
    O            -0.0012228343        0.5000000000        0.5541729208
    O             0.5000257409        0.5000000000        0.5588724693
    O            -0.0025069392        0.0000000000        0.5875299806
    O             0.4991157005        0.0000000000        0.5874838077
    Ru            0.2480581961        0.0000000000        0.6393116674
    Ru            0.7480160970        0.0000000000        0.6403031839
    O             0.2460276487        0.3085683248        0.6434887945
    O             0.7496440605        0.3098087904        0.6460473745
    Ru           -0.0015509827        0.5000000000        0.6431246724
    Ru            0.4978260754        0.5000000000        0.6508850514
    O             0.2460276487        0.6914316752        0.6434887945
    O             0.7496440605        0.6901912096        0.6460473745
    O            -0.0031763649        0.0000000000        0.7113017218
    O             0.4985621339        0.0000000000        0.7111800932
    O             0.0155931176        0.5000000000        0.7354708991
    O             0.4783055808        0.5000000000        0.7329851255
    H             0.1656864580        0.5000000000        0.2569636121
    H             0.1656864580        0.5000000000        0.7430363879
    H            -0.0057352064        0.1353053144        0.2636690506
    H            -0.0057352064        0.1353053144        0.7363309494
    H             0.4987498843        0.1336084417        0.2633335333
    H             0.4987498843        0.1336084417        0.7366664667
    H            -0.0057352064        0.8646946856        0.2636690506
    H            -0.0057352064        0.8646946856        0.7363309494
    H             0.4987498843        0.8663915583        0.2633335333
    H             0.4987498843        0.8663915583        0.7366664667


K_POINTS automatic
2 2 1 1 1 0

CELL_PARAMETERS bohr
12.246684433528877 0.000000 0.000000
0.000000 11.485686168390332 0.000000
0.000000 0.000000 41.825308
