&control
 calculation = 'relax',
 restart_mode = 'from_scratch',
 verbosity = 'high',
 prefix = 'RuO2-110-0-',
 tstress = .FALSE.,
 tprnfor = .TRUE.,
 pseudo_dir = '/gpfs/group/ixd4/default/Simon/pseudopotentials/materialscloud/SSSP_1.3.0_PBE_efficiency',
 outdir = '/storage/home/mgm6007/ixd4/Maria/Strain0_Files/RuO2-110-0-',
 forc_conv_thr = 1.0D-4,
 etot_conv_thr = 1.0D-4,
 nstep = 200
/
&system
 ibrav = 0,
 nat = 40
 ntyp = 2,
 ecutwfc = 50,
 ecutrho = 500,
 occupations = 'smearing',
 smearing = 'mv',
 degauss = 0.03,
 tot_charge = 0.00,
/
&electrons
 electron_maxstep = 100,
 scf_must_converge = .FALSE.,
 diagonalization = 'david',
 mixing_beta = 0.7,
 mixing_mode = 'local-TF',
 conv_thr = 1.0D-9
/
&ions
 ion_dynamics = 'bfgs'
/

ATOMIC_SPECIES
 O 15.999400 O.pbe-n-kjpaw_psl.0.1.UPF
 Ru 101.070000 Ru_ONCV_PBE-1.0.oncvpsp.upf
 H 1.007940 H.pbe-rrkjus_psl.1.0.0.UPF

ATOMIC_POSITIONS crystal
    O             0.0000000000        0.5000000000        0.2794515187
    O             0.5000000000        0.5000000000        0.2800559526
    O             0.0000000000        0.0000000000        0.3127644929
    O             0.5000000000        0.0000000000        0.3127191488
    Ru            0.2501091725        0.0000000000        0.3586281063
    Ru            0.7498908275       -0.0000000000        0.3586281063
    O             0.2505953809        0.3086745861        0.3621350422
    O             0.7494046191        0.3086745861        0.3621350422
    Ru            0.0000000000        0.5000000000        0.3543949588
    Ru            0.5000000000        0.5000000000        0.3548919420
    O             0.2505953809        0.6913254139        0.3621350422
    O             0.7494046191        0.6913254139        0.3621350422
    O             0.0000000000        0.0000000000        0.4148708616
    O             0.5000000000        0.0000000000        0.4149583868
    O             0.0000000000        0.5000000000        0.4440430004
    O             0.5000000000        0.5000000000        0.4477479521
    Ru            0.0000000000        0.0000000000        0.5000010000
    Ru            0.5000000000        0.0000000000        0.5000010000
    O             0.2489047482        0.1933544825        0.5000010000
    O             0.7510952518        0.1933544825        0.5000010000
    Ru            0.2470123296        0.5000000000        0.5000010000
    Ru            0.7529876704        0.5000000000        0.5000010000
    O             0.2489047482        0.8066465175        0.5000010000
    O             0.7510952518        0.8066465175        0.5000010000
    O             0.0000000000        0.5000000000        0.5559579996
    O             0.5000000000        0.5000000000        0.5522530479
    O             0.0000000000        0.0000000000        0.5851301384
    O             0.5000000000        0.0000000000        0.5850426132
    Ru            0.2501091725       -0.0000000000        0.6413738937
    Ru            0.7498908275        0.0000000000        0.6413738937
    O             0.2505953809        0.3086745861        0.6378669578
    O             0.7494046191        0.3086745861        0.6378669578
    Ru            0.0000000000        0.5000000000        0.6456070412
    Ru            0.5000000000        0.5000000000        0.6451100580
    O             0.2505953809        0.6913254139        0.6378669578
    O             0.7494046191        0.6913254139        0.6378669578
    O             0.0000000000        0.0000000000        0.6872365071
    O             0.5000000000        0.0000000000        0.6872818512
    O             0.0000000000        0.5000000000        0.7205494813
    O             0.5000000000        0.5000000000        0.7199450474

K_POINTS automatic
2 2 1 1 1 0

CELL_PARAMETERS bohr
12.104053288299633 0.000000 0.000000
0.000000 11.761936877845498 0.000000
0.000000 0.000000 42.770171
