&control
 calculation = 'relax',
 restart_mode = 'from_scratch',
 prefix = 'RuO2-110-0-0123',
 tstress = .FALSE.,
 tprnfor = .TRUE.,
 pseudo_dir = '/gpfs/group/ixd4/default/Simon/pseudopotentials/materialscloud/SSSP_1.3.0_PBE_efficiency',
 outdir = '/storage/home/mgm6007/ixd4/Maria/Strain0_Files/RuO2-110-0-0123',
 forc_conv_thr = 1.0D-4,
 etot_conv_thr = 1.0D-4,
 nstep = 200
/
&system
 ibrav = 0,
 nat = 48
 ntyp = 3,
 ecutwfc = 50,
 ecutrho = 500,
 occupations = 'smearing',
 smearing = 'mv',
 degauss = 0.03,
 tot_charge = 0.00,
/
&electrons
 electron_maxstep = 100,
 scf_must_converge = .FALSE.,
 diagonalization = 'david',
 mixing_beta = 0.7,
 mixing_mode = 'local-TF',
 conv_thr = 1.0D-9
/
&ions
 ion_dynamics = 'bfgs'
/

ATOMIC_SPECIES
 O 15.999400 O.pbe-n-kjpaw_psl.0.1.UPF
 Ru 101.070000 Ru_ONCV_PBE-1.0.oncvpsp.upf
 H 1.007940 H.pbe-rrkjus_psl.1.0.0.UPF

ATOMIC_POSITIONS crystal
    O             0.0019623292        0.4805096627        0.2678395076
    O             0.4875057291        0.4608059837        0.2700741624
    O            -0.0024059749        0.0099301381        0.3011664395
    O             0.4986247763        0.0191836746        0.3001157678
    Ru            0.2484595048        0.0028287963        0.3583433419
    Ru            0.7480150448        0.0027485315        0.3584743141
    O             0.2477783007        0.3042222265        0.3590183139
    O             0.7499621001        0.3080536179        0.3585052815
    Ru            0.0003047946        0.5011414445        0.3551830905
    Ru            0.4960768857        0.5012834895        0.3583092994
    O             0.2508506254        0.6991965077        0.3548530077
    O             0.7453878850        0.6951689888        0.3540305514
    O            -0.0013352755       -0.0032561204        0.4115736921
    O             0.4980899512       -0.0011656309        0.4112669916
    O            -0.0004274927        0.5054654283        0.4417408574
    O             0.5005818380        0.5030600766        0.4459205854
    Ru            0.0018515304        0.0011180456        0.5000010000
    Ru            0.4969439239        0.0011860062        0.5000010000
    O             0.2473667117        0.1979808121        0.5000010000
    O             0.7505231904        0.1927508423        0.5000010000
    Ru            0.2443069793        0.5014460594        0.5000010000
    Ru            0.7550700731        0.5016508769        0.5000010000
    O             0.2485100773        0.8049931681        0.5000010000
    O             0.7497566716        0.8107630280        0.5000010000
    O            -0.0004274927        0.5054654283        0.5582601426
    O             0.5005818380        0.5030600766        0.5540804146
    O            -0.0013352755       -0.0032561204        0.5884273079
    O             0.4980899512       -0.0011656309        0.5887340084
    Ru            0.2484595048        0.0028287963        0.6416576581
    Ru            0.7480150448        0.0027485315        0.6415266859
    O             0.2477783007        0.3042222265        0.6409826861
    O             0.7499621001        0.3080536179        0.6414957185
    Ru            0.0003047946        0.5011414445        0.6448179095
    Ru            0.4960768857        0.5012834895        0.6416917006
    O             0.2508506254        0.6991965077        0.6451479923
    O             0.7453878850        0.6951689888        0.6459704486
    O            -0.0024059749        0.0099301381        0.6988355605
    O             0.4986247763        0.0191836746        0.6998862322
    O             0.0019623292        0.4805096627        0.7321614924
    O             0.4875057291        0.4608059837        0.7299268376
    H             0.1476436820        0.4839701798        0.2532972886
    H             0.1476436820        0.4839701798        0.7467027114
    H             0.6263337031        0.4846063277        0.2525359905
    H             0.6263337031        0.4846063277        0.7474640095
    H            -0.0038172778        0.1159522604        0.2699264611
    H            -0.0038172778        0.1159522604        0.7300735389
    H             0.4985142919        0.1487829973        0.2773122098
    H             0.4985142919        0.1487829973        0.7226877902


K_POINTS automatic
2 2 1 1 1 0

CELL_PARAMETERS bohr
12.104053288299633 0.000000 0.000000
0.000000 11.761936877845498 0.000000
0.000000 0.000000 41.825308
