&control
 calculation = 'relax',
 restart_mode = 'from_scratch',
 prefix = 'RuO2-110-0-0234',
 tstress = .FALSE.,
 tprnfor = .TRUE.,
 pseudo_dir = '/gpfs/group/ixd4/default/Simon/pseudopotentials/materialscloud/SSSP_1.3.0_PBE_efficiency',
 outdir = '/storage/home/mgm6007/ixd4/Maria/Strain1_Files/RuO2-110-0-0234',
 forc_conv_thr = 1.0D-4,
 etot_conv_thr = 1.0D-4,
 nstep = 200
/
&system
 ibrav = 0,
 nat = 48
 ntyp = 3,
 ecutwfc = 50,
 ecutrho = 500,
 occupations = 'smearing',
 smearing = 'mv',
 degauss = 0.03,
 tot_charge = 0.00,
/
&electrons
 electron_maxstep = 100,
 scf_must_converge = .FALSE.,
 diagonalization = 'david',
 mixing_beta = 0.7,
 mixing_mode = 'local-TF',
 conv_thr = 1.0D-9
/
&ions
 ion_dynamics = 'bfgs'
/

ATOMIC_SPECIES
 O 15.999400 O.pbe-n-kjpaw_psl.0.1.UPF
 Ru 101.070000 Ru_ONCV_PBE-1.0.oncvpsp.upf
 H 1.007940 H.pbe-rrkjus_psl.1.0.0.UPF

ATOMIC_POSITIONS crystal
    O             0.0152354514        0.4254422040        0.2637001345
    O             0.4802042630        0.4526028569        0.2718240666
    O            -0.0033323562        0.0080818251        0.2986046497
    O             0.4983655170        0.0025507927        0.3007903381
    Ru            0.2507907066       -0.0063440849        0.3587673212
    Ru            0.7452648352       -0.0063536416        0.3587676433
    O             0.2456748932        0.3055464763        0.3632636300
    O             0.7507321259        0.3068251849        0.3615841873
    Ru           -0.0006220378        0.4929093740        0.3602135842
    Ru            0.4994628713        0.4939085517        0.3514174684
    O             0.2433326025        0.6829874484        0.3526044725
    O             0.7530302883        0.6817292422        0.3517173470
    O            -0.0021893254       -0.0106750799        0.4110629955
    O             0.4980737351       -0.0069192274        0.4114149518
    O             0.0005389974        0.5108300006        0.4469062788
    O             0.4986164866        0.5096044910        0.4427317197
    Ru           -0.0026218013        0.0071216620        0.5000010000
    Ru            0.4969592889        0.0074283032        0.5000010000
    O             0.2463245970        0.1940152820        0.5000010000
    O             0.7454296490        0.1943902693        0.5000010000
    Ru            0.2558988807        0.5083127644        0.5000010000
    Ru            0.7498014712        0.5081872779        0.5000010000
    O             0.2471464634        0.8222056766        0.5000010000
    O             0.7449720635        0.8216529992        0.5000010000
    O             0.0005389974        0.5108300006        0.5530947212
    O             0.4986164866        0.5096044910        0.5572692803
    O            -0.0021893254       -0.0106750799        0.5889380045
    O             0.4980737351       -0.0069192274        0.5885860482
    Ru            0.2507907066       -0.0063440849        0.6412336788
    Ru            0.7452648352       -0.0063536416        0.6412333567
    O             0.2456748932        0.3055464763        0.6367373700
    O             0.7507321259        0.3068251849        0.6384168127
    Ru           -0.0006220378        0.4929093740        0.6397874158
    Ru            0.4994628713        0.4939085517        0.6485835316
    O             0.2433326025        0.6829874484        0.6473965275
    O             0.7530302883        0.6817292422        0.6482836530
    O            -0.0033323562        0.0080818251        0.7013973503
    O             0.4983655170        0.0025507927        0.6992116619
    O             0.0152354514        0.4254422040        0.7363008655
    O             0.4802042630        0.4526028569        0.7281769334
    H             0.1593406030        0.4480637208        0.2524257148
    H             0.1593406030        0.4480637208        0.7475742852
    H             0.0006237047        0.2550320676        0.2695106689
    H             0.0006237047        0.2550320676        0.7304893311
    H             0.4967969696        0.1378325382        0.2745482540
    H             0.4967969696        0.1378325382        0.7254517460
    H            -0.0042606377        0.8989051421        0.2655509693
    H            -0.0042606377        0.8989051421        0.7344490307


K_POINTS automatic
2 2 1 1 1 0

CELL_PARAMETERS bohr
12.389315578758117 0.000000 0.000000
0.000000 11.209435458935166 0.000000
0.000000 0.000000 41.825308
