&control
 calculation = 'relax',
 restart_mode = 'from_scratch',
 prefix = 'RuO2-110-0-2345',
 tstress = .FALSE.,
 tprnfor = .TRUE.,
 pseudo_dir = '/gpfs/group/ixd4/default/Simon/pseudopotentials/materialscloud/SSSP_1.3.0_PBE_efficiency',
 outdir = '/storage/home/mgm6007/ixd4/Maria/Strain2_Files/RuO2-110-0-2345',
 forc_conv_thr = 1.0D-4,
 etot_conv_thr = 1.0D-4,
 nstep = 200
/
&system
 ibrav = 0,
 nat = 48
 ntyp = 3,
 ecutwfc = 50,
 ecutrho = 500,
 occupations = 'smearing',
 smearing = 'mv',
 degauss = 0.03,
 tot_charge = 0.00,
/
&electrons
 electron_maxstep = 100,
 scf_must_converge = .FALSE.,
 diagonalization = 'david',
 mixing_beta = 0.7,
 mixing_mode = 'local-TF',
 conv_thr = 1.0D-9
/
&ions
 ion_dynamics = 'bfgs'
/

ATOMIC_SPECIES
 O 15.999400 O.pbe-n-kjpaw_psl.0.1.UPF
 Ru 101.070000 Ru_ONCV_PBE-1.0.oncvpsp.upf
 H 1.007940 H.pbe-rrkjus_psl.1.0.0.UPF

ATOMIC_POSITIONS crystal
    O             0.0000000000        0.5000000000        0.2690551970
    O             0.5000000000        0.5000000000        0.2690552001
    O             0.0000000000        0.0000000000        0.2895078771
    O             0.5000000000        0.0000000000        0.2895078794
    Ru            0.2499999979       -0.0000000000        0.3607099140
    Ru            0.7500000021        0.0000000000        0.3607099140
    O             0.2500000091        0.3085819625        0.3551255307
    O             0.7499999909        0.3085819625        0.3551255307
    Ru            0.0000000000        0.5000000000        0.3501424537
    Ru            0.5000000000        0.5000000000        0.3501424553
    O             0.2500000091        0.6914180375        0.3551255307
    O             0.7499999909        0.6914180375        0.3551255307
    O             0.0000000000        0.0000000000        0.4127122880
    O             0.5000000000        0.0000000000        0.4127122900
    O             0.0000000000        0.5000000000        0.4438285058
    O             0.5000000000        0.5000000000        0.4438285566
    Ru            0.0000000000        0.0000000000        0.5000010000
    Ru            0.5000000000        0.0000000000        0.5000010000
    O             0.2499999954        0.1886100690        0.5000010000
    O             0.7500000046        0.1886100690        0.5000010000
    Ru            0.2499999638        0.5000000000        0.5000010000
    Ru            0.7500000362        0.5000000000        0.5000010000
    O             0.2499999954        0.8113909310        0.5000010000
    O             0.7500000046        0.8113909310        0.5000010000
    O             0.0000000000        0.5000000000        0.5561724942
    O             0.5000000000        0.5000000000        0.5561724434
    O             0.0000000000        0.0000000000        0.5872887120
    O             0.5000000000        0.0000000000        0.5872887100
    Ru            0.2499999979        0.0000000000        0.6392910860
    Ru            0.7500000021       -0.0000000000        0.6392910860
    O             0.2500000091        0.3085819625        0.6448754693
    O             0.7499999909        0.3085819625        0.6448754693
    Ru            0.0000000000        0.5000000000        0.6498585463
    Ru            0.5000000000        0.5000000000        0.6498585447
    O             0.2500000091        0.6914180375        0.6448754693
    O             0.7499999909        0.6914180375        0.6448754693
    O             0.0000000000        0.0000000000        0.7104941229
    O             0.5000000000        0.0000000000        0.7104941206
    O             0.0000000000        0.5000000000        0.7309458030
    O             0.5000000000        0.5000000000        0.7309457999
    H             0.0000000000        0.1337204970        0.2641220729
    H             0.0000000000        0.1337204970        0.7358779271
    H             0.5000000000        0.1337204996        0.2641220757
    H             0.5000000000        0.1337204996        0.7358779243
    H             0.0000000000        0.8662795030        0.2641220729
    H             0.0000000000        0.8662795030        0.7358779271
    H             0.5000000000        0.8662795004        0.2641220757
    H             0.5000000000        0.8662795004        0.7358779243


K_POINTS automatic
2 2 1 1 1 0

CELL_PARAMETERS bohr
12.246684433528877 0.000000 0.000000
0.000000 11.485686168390332 0.000000
0.000000 0.000000 41.825308
