&control
 calculation = 'relax',
 restart_mode = 'from_scratch',
 prefix = 'RuO2-110-0-01234',
 tstress = .FALSE.,
 tprnfor = .TRUE.,
 pseudo_dir = '/gpfs/group/ixd4/default/Simon/pseudopotentials/materialscloud/SSSP_1.3.0_PBE_efficiency',
 outdir = '/storage/home/mgm6007/ixd4/Maria/Strain1_Files/RuO2-110-0-01234',
 forc_conv_thr = 1.0D-4,
 etot_conv_thr = 1.0D-4,
 nstep = 200
/
&system
 ibrav = 0,
 nat = 50
 ntyp = 3,
 ecutwfc = 50,
 ecutrho = 500,
 occupations = 'smearing',
 smearing = 'mv',
 degauss = 0.03,
 tot_charge = 0.00,
/
&electrons
 electron_maxstep = 100,
 scf_must_converge = .FALSE.,
 diagonalization = 'david',
 mixing_beta = 0.7,
 mixing_mode = 'local-TF',
 conv_thr = 1.0D-9
/
&ions
 ion_dynamics = 'bfgs'
/

ATOMIC_SPECIES
 O 15.999400 O.pbe-n-kjpaw_psl.0.1.UPF
 Ru 101.070000 Ru_ONCV_PBE-1.0.oncvpsp.upf
 H 1.007940 H.pbe-rrkjus_psl.1.0.0.UPF
 
ATOMIC_POSITIONS crystal
    O             0.0163855968        0.4275688926        0.2610176818
    O             0.4860958553        0.4339001029        0.2659071933
    O            -0.0059182933        0.0113749917        0.2977639058
    O             0.4927666702        0.0050816062        0.3002416739
    Ru            0.2458986572       -0.0066214328        0.3587702453
    Ru            0.7400415965       -0.0083966872        0.3584741712
    O             0.2539383973        0.3077080259        0.3623268140
    O             0.7536484453        0.3062484845        0.3606250932
    Ru            0.0034395267        0.4917486580        0.3590684431
    Ru            0.5019413463        0.4941783251        0.3570082168
    O             0.2517813169        0.6803339753        0.3515853670
    O             0.7567084374        0.6789782557        0.3502072312
    O            -0.0057518204       -0.0098406344        0.4109826008
    O             0.4947871459       -0.0067098939        0.4113487756
    O            -0.0005493266        0.5150589163        0.4459249881
    O             0.5008240067        0.5142464526        0.4452850744
    Ru           -0.0046663971        0.0119329218        0.5000010000
    Ru            0.4953341279        0.0122582939        0.5000010000
    O             0.2439840098        0.1984931944        0.5000010000
    O             0.7454203636        0.1991591711        0.5000010000
    Ru            0.2525856560        0.5131330374        0.5000010000
    Ru            0.7498518665        0.5139227052        0.5000010000
    O             0.2446037305        0.8269736654        0.5000010000
    O             0.7453386409        0.8275786740        0.5000010000
    O            -0.0005493266        0.5150589163        0.5540760119
    O             0.5008240067        0.5142464526        0.5547159256
    O            -0.0057518204       -0.0098406344        0.5890183992
    O             0.4947871459       -0.0067098939        0.5886522244
    Ru            0.2458986572       -0.0066214328        0.6412307547
    Ru            0.7400415965       -0.0083966872        0.6415268288
    O             0.2539383973        0.3077080259        0.6376741860
    O             0.7536484453        0.3062484845        0.6393759068
    Ru            0.0034395267        0.4917486580        0.6409325569
    Ru            0.5019413463        0.4941783251        0.6429927832
    O             0.2517813169        0.6803339753        0.6484156330
    O             0.7567084374        0.6789782557        0.6497937688
    O            -0.0059182933        0.0113749917        0.7022380942
    O             0.4927666702        0.0050816062        0.6997603261
    O             0.0163855968        0.4275688926        0.7389833182
    O             0.4860958553        0.4339001029        0.7340938067
    H             0.1602563602        0.4482257340        0.2495428564
    H             0.1602563602        0.4482257340        0.7504571436
    H             0.6165751538        0.4717838623        0.2473708314
    H             0.6165751538        0.4717838623        0.7526291686
    H             0.0009607789        0.2579816649        0.2659303152
    H             0.0009607789        0.2579816649        0.7340696848
    H             0.4926354943        0.1570107118        0.2795987140
    H             0.4926354943        0.1570107118        0.7204012860
    H            -0.0074213446        0.8926311568        0.2673131606
    H            -0.0074213446        0.8926311568        0.7326868394


K_POINTS automatic
2 2 1 1 1 0

CELL_PARAMETERS bohr
12.389315578758117 0.000000 0.000000
0.000000 11.209435458935166 0.000000
0.000000 0.000000 41.825308
