&control
 calculation = 'relax',
 restart_mode = 'from_scratch',
 prefix = 'RuO2-110-0-023',
 tstress = .FALSE.,
 tprnfor = .TRUE.,
 pseudo_dir = '/gpfs/group/ixd4/default/Simon/pseudopotentials/materialscloud/SSSP_1.3.0_PBE_efficiency',
 outdir = '/storage/home/mgm6007/ixd4/Maria/Strain1_Files/RuO2-110-0-023',
 forc_conv_thr = 1.0D-4,
 etot_conv_thr = 1.0D-4,
 nstep = 200
/
&system
 ibrav = 0,
 nat = 46
 ntyp = 3,
 ecutwfc = 50,
 ecutrho = 500,
 occupations = 'smearing',
 smearing = 'mv',
 degauss = 0.03,
 tot_charge = 0.00,
/
&electrons
 electron_maxstep = 100,
 scf_must_converge = .FALSE.,
 diagonalization = 'david',
 mixing_beta = 0.7,
 mixing_mode = 'local-TF',
 conv_thr = 1.0D-9
/
&ions
 ion_dynamics = 'bfgs'
/

ATOMIC_SPECIES
 O 15.999400 O.pbe-n-kjpaw_psl.0.1.UPF
 Ru 101.070000 Ru_ONCV_PBE-1.0.oncvpsp.upf
 H 1.007940 H.pbe-rrkjus_psl.1.0.0.UPF

ATOMIC_POSITIONS crystal
    O             0.0017076936        0.4425000024        0.2687852737
    O             0.4870397893        0.4928429904        0.2728240098
    O             0.0005086703        0.0140847681        0.3013163250
    O             0.4992791386        0.0060670037        0.3046393430
    Ru            0.2496733752        0.0040046449        0.3589214022
    Ru            0.7503350212        0.0038699924        0.3586726142
    O             0.2491845411        0.3160642941        0.3627011150
    O             0.7490217347        0.3163429800        0.3602374117
    Ru           -0.0008227795        0.5025322905        0.3575464967
    Ru            0.4999152238        0.5035261905        0.3509485910
    O             0.2416023942        0.6935023241        0.3543761369
    O             0.7559269777        0.6918584923        0.3536454520
    O            -0.0004672629        0.0019939916        0.4111014340
    O             0.5010783864       -0.0007124871        0.4117552086
    O            -0.0029574997        0.5112676447        0.4461659032
    O             0.4970713113        0.5129774089        0.4429447308
    Ru            0.0023123879        0.0094263967        0.5000010000
    Ru            0.5028078012        0.0096241973        0.5000010000
    O             0.2549779282        0.1963659114        0.5000010000
    O             0.7538863330        0.1960160658        0.5000010000
    Ru            0.2462736987        0.5102976924        0.5000010000
    Ru            0.7423327855        0.5101511489        0.5000010000
    O             0.2545247367        0.8240554806        0.5000010000
    O             0.7544845067        0.8238398912        0.5000010000
    O            -0.0029574997        0.5112676447        0.5538350968
    O             0.4970713113        0.5129774089        0.5570562692
    O            -0.0004672629        0.0019939916        0.5888995660
    O             0.5010783864       -0.0007124871        0.5882457914
    Ru            0.2496733752        0.0040046449        0.6410795978
    Ru            0.7503350212        0.0038699924        0.6413283858
    O             0.2491845411        0.3160642941        0.6372998850
    O             0.7490217347        0.3163429800        0.6397635883
    Ru           -0.0008227795        0.5025322905        0.6424545033
    Ru            0.4999152238        0.5035261905        0.6490524090
    O             0.2416023942        0.6935023241        0.6456248631
    O             0.7559269777        0.6918584923        0.6463555480
    O             0.0005086703        0.0140847681        0.6986856750
    O             0.4992791386        0.0060670037        0.6953626570
    O             0.0017076936        0.4425000024        0.7312157263
    O             0.4870397893        0.4928429904        0.7271769902
    H             0.1353674157        0.4786365630        0.2516364842
    H             0.1353674157        0.4786365630        0.7483635158
    H            -0.0000988878        0.1632310127        0.2791717420
    H            -0.0000988878        0.1632310127        0.7208282580
    H             0.4984696680        0.0339545007        0.2611455438
    H             0.4984696680        0.0339545007        0.7388544562


K_POINTS automatic
2 2 1 1 1 0

CELL_PARAMETERS bohr
12.389315578758117 0.000000 0.000000
0.000000 11.209435458935166 0.000000
0.000000 0.000000 41.825308
