&control
 calculation = 'relax',
 restart_mode = 'from_scratch',
 prefix = 'RuO2-110-0-02345',
 tstress = .FALSE.,
 tprnfor = .TRUE.,
 pseudo_dir = '/gpfs/group/ixd4/default/Simon/pseudopotentials/materialscloud/SSSP_1.3.0_PBE_efficiency',
 outdir = '/storage/home/mgm6007/ixd4/Maria/Strain0_Files/RuO2-110-0-02345',
 forc_conv_thr = 1.0D-4,
 etot_conv_thr = 1.0D-4,
 nstep = 200
/
&system
 ibrav = 0,
 nat = 50
 ntyp = 3,
 ecutwfc = 50,
 ecutrho = 500,
 occupations = 'smearing',
 smearing = 'mv',
 degauss = 0.03,
 tot_charge = 0.00,
/
&electrons
 electron_maxstep = 100,
 scf_must_converge = .FALSE.,
 diagonalization = 'david',
 mixing_beta = 0.7,
 mixing_mode = 'local-TF',
 conv_thr = 1.0D-9
/
&ions
 ion_dynamics = 'bfgs'
/

ATOMIC_SPECIES
 O 15.999400 O.pbe-n-kjpaw_psl.0.1.UPF
 Ru 101.070000 Ru_ONCV_PBE-1.0.oncvpsp.upf
 H 1.007940 H.pbe-rrkjus_psl.1.0.0.UPF

ATOMIC_POSITIONS crystal
    O             0.0235555856        0.5000000000        0.2661168514
    O             0.4743534173        0.5000000000        0.2694387343
    O            -0.0021720035        0.0000000000        0.2876732813
    O             0.4965404898        0.0000000000        0.2873099185
    Ru            0.2472190981        0.0000000000        0.3609778748
    Ru            0.7470529210        0.0000000000        0.3595075135
    O             0.2444623882        0.3005334296        0.3568259296
    O             0.7508729136        0.3041649708        0.3538545327
    Ru           -0.0006768512        0.5000000000        0.3573166698
    Ru            0.4987728515        0.5000000000        0.3503013141
    O             0.2444623882        0.6994665704        0.3568259296
    O             0.7508729136        0.6958350292        0.3538545327
    O            -0.0047419730        0.0000000000        0.4127562604
    O             0.4987633990        0.0000000000        0.4127058941
    O            -0.0027227396        0.5000000000        0.4455273588
    O             0.4963542843        0.5000000000        0.4400324160
    Ru           -0.0050997144        0.0000000000        0.5000010000
    Ru            0.4989836274        0.0000000000        0.5000010000
    O             0.2486403654        0.1927051390        0.5000010000
    O             0.7451737222        0.1971068564        0.5000010000
    Ru            0.2537672427        0.5000000000        0.5000010000
    Ru            0.7414776943        0.5000000000        0.5000010000
    O             0.2486403654        0.8072958610        0.5000010000
    O             0.7451737222        0.8028941436        0.5000010000
    O            -0.0027227396        0.5000000000        0.5544736412
    O             0.4963542843        0.5000000000        0.5599685840
    O            -0.0047419730        0.0000000000        0.5872447396
    O             0.4987633990        0.0000000000        0.5872951059
    Ru            0.2472190981        0.0000000000        0.6390231252
    Ru            0.7470529210        0.0000000000        0.6404934865
    O             0.2444623882        0.3005334296        0.6431750704
    O             0.7508729136        0.3041649708        0.6461464673
    Ru           -0.0006768512        0.5000000000        0.6426843302
    Ru            0.4987728515        0.5000000000        0.6496996859
    O             0.2444623882        0.6994665704        0.6431750704
    O             0.7508729136        0.6958350292        0.6461464673
    O            -0.0021720035        0.0000000000        0.7123287187
    O             0.4965404898        0.0000000000        0.7126920815
    O             0.0235555856        0.5000000000        0.7338841486
    O             0.4743534173        0.5000000000        0.7305622657
    H             0.1775522308        0.5000000000        0.2604089001
    H             0.1775522308        0.5000000000        0.7395910999
    H            -0.0010069482        0.1231503533        0.2624101277
    H            -0.0010069482        0.1231503533        0.7375898723
    H             0.4953745350        0.1218571645        0.2616621279
    H             0.4953745350        0.1218571645        0.7383378721
    H            -0.0010069482        0.8768496467        0.2624101277
    H            -0.0010069482        0.8768496467        0.7375898723
    H             0.4953745350        0.8781428355        0.2616621279
    H             0.4953745350        0.8781428355        0.7383378721


K_POINTS automatic
2 2 1 1 1 0

CELL_PARAMETERS bohr
12.104053288299633 0.000000 0.000000
0.000000 11.761936877845498 0.000000
0.000000 0.000000 41.825308
