&control
 calculation = 'relax',
 restart_mode = 'from_scratch',
 prefix = 'RuO2-110-0-035',
 tstress = .FALSE.,
 tprnfor = .TRUE.,
 pseudo_dir = '/gpfs/group/ixd4/default/Simon/pseudopotentials/materialscloud/SSSP_1.3.0_PBE_efficiency',
 outdir = '/storage/home/mgm6007/ixd4/Maria/Strain2_Files/RuO2-110-0-035',
 forc_conv_thr = 1.0D-4,
 etot_conv_thr = 1.0D-4,
 nstep = 200
/
&system
 ibrav = 0,
 nat = 46
 ntyp = 3,
 ecutwfc = 50,
 ecutrho = 500,
 occupations = 'smearing',
 smearing = 'mv',
 degauss = 0.03,
 tot_charge = 0.00,
/
&electrons
 electron_maxstep = 100,
 scf_must_converge = .FALSE.,
 diagonalization = 'david',
 mixing_beta = 0.7,
 mixing_mode = 'local-TF',
 conv_thr = 1.0D-9
/
&ions
 ion_dynamics = 'bfgs'
/

ATOMIC_SPECIES
 O 15.999400 O.pbe-n-kjpaw_psl.0.1.UPF
 Ru 101.070000 Ru_ONCV_PBE-1.0.oncvpsp.upf
 H 1.007940 H.pbe-rrkjus_psl.1.0.0.UPF

ATOMIC_POSITIONS crystal
    O            -0.0030837780        0.5000000000        0.2697666451
    O             0.4848684682        0.5000000000        0.2734906005
    O            -0.0003085398        0.0000000000        0.3072259343
    O             0.5002745847        0.0000000000        0.2893572631
    Ru            0.2378522485        0.0000000000        0.3580422405
    Ru            0.7607818640        0.0000000000        0.3578192039
    O             0.2474554947        0.3098085045        0.3586134635
    O             0.7507148566        0.3108736655        0.3574639258
    Ru           -0.0002379636        0.5000000000        0.3575883073
    Ru            0.5007390795        0.5000000000        0.3534912369
    O             0.2474554947        0.6901914955        0.3586134635
    O             0.7507148566        0.6891263345        0.3574639258
    O            -0.0004466022        0.0000000000        0.4123057022
    O             0.5006450282        0.0000000000        0.4108280167
    O            -0.0005176844        0.5000000000        0.4462666697
    O             0.4985050475        0.5000000000        0.4434007696
    Ru            0.0004600166        0.0000000000        0.5000010000
    Ru            0.5005586896        0.0000000000        0.5000010000
    O             0.2527101705        0.1880968851        0.5000010000
    O             0.7490818608        0.1882153420        0.5000010000
    Ru            0.2505980015        0.5000000000        0.5000010000
    Ru            0.7478834415        0.5000000000        0.5000010000
    O             0.2527101705        0.8119041149        0.5000010000
    O             0.7490818608        0.8117856580        0.5000010000
    O            -0.0005176844        0.5000000000        0.5537343303
    O             0.4985050475        0.5000000000        0.5566002304
    O            -0.0004466022        0.0000000000        0.5876952978
    O             0.5006450282        0.0000000000        0.5891729833
    Ru            0.2378522485        0.0000000000        0.6419587595
    Ru            0.7607818640        0.0000000000        0.6421817961
    O             0.2474554947        0.3098085045        0.6413875365
    O             0.7507148566        0.3108736655        0.6425370742
    Ru           -0.0002379636        0.5000000000        0.6424126927
    Ru            0.5007390795        0.5000000000        0.6465097631
    O             0.2474554947        0.6901914955        0.6413875365
    O             0.7507148566        0.6891263345        0.6425370742
    O            -0.0003085398        0.0000000000        0.6927760657
    O             0.5002745847        0.0000000000        0.7106447369
    O            -0.0030837780        0.5000000000        0.7302343549
    O             0.4848684682        0.5000000000        0.7265103995
    H             0.1382504473        0.5000000000        0.2542635875
    H             0.1382504473        0.5000000000        0.7457364125
    H             0.5012149958        0.1306066706        0.2627183892
    H             0.5012149958        0.1306066706        0.7372816108
    H             0.5012149958        0.8693933294        0.2627183892
    H             0.5012149958        0.8693933294        0.7372816108


K_POINTS automatic
2 2 1 1 1 0

CELL_PARAMETERS bohr
12.246684433528877 0.000000 0.000000
0.000000 11.485686168390332 0.000000
0.000000 0.000000 41.825308
