&control
 calculation = 'relax',
 restart_mode = 'from_scratch',
 prefix = 'RuO2-110-0-01',
 tstress = .FALSE.,
 tprnfor = .TRUE.,
 pseudo_dir = '/gpfs/group/ixd4/default/Simon/pseudopotentials/materialscloud/SSSP_1.3.0_PBE_efficiency',
 outdir = '/storage/home/mgm6007/ixd4/Maria/Strain0_Files/RuO2-110-0-01',
 forc_conv_thr = 1.0D-4,
 etot_conv_thr = 1.0D-4,
 nstep = 200
/
&system
 ibrav = 0,
 nat = 44
 ntyp = 3,
 ecutwfc = 50,
 ecutrho = 500,
 occupations = 'smearing',
 smearing = 'mv',
 degauss = 0.03,
 tot_charge = 0.00,
/
&electrons
 electron_maxstep = 100,
 scf_must_converge = .FALSE.,
 diagonalization = 'david',
 mixing_beta = 0.7,
 mixing_mode = 'local-TF',
 conv_thr = 1.0D-9
/
&ions
 ion_dynamics = 'bfgs'
/

ATOMIC_SPECIES
 O 15.999400 O.pbe-n-kjpaw_psl.0.1.UPF
 Ru 101.070000 Ru_ONCV_PBE-1.0.oncvpsp.upf
 H 1.007940 H.pbe-rrkjus_psl.1.0.0.UPF

ATOMIC_POSITIONS crystal
    O            -0.0094133780        0.5000000000        0.2712312067
    O             0.4905867310        0.5000000000        0.2712308298
    O            -0.0013620496        0.0000000000        0.3073478586
    O             0.4986379915        0.0000000000        0.3073478722
    Ru            0.2484598354        0.0000000000        0.3543013324
    Ru            0.7484598698        0.0000000000        0.3543013615
    O             0.2475050350        0.3089262117        0.3575414764
    O             0.7475050891        0.3089260826        0.3575414556
    Ru           -0.0033462420        0.5000000000        0.3575010912
    Ru            0.4966539730        0.5000000000        0.3575006347
    O             0.2475050350        0.6910737883        0.3575414764
    O             0.7475050891        0.6910739174        0.3575414556
    O            -0.0007368338        0.0000000000        0.4124073452
    O             0.4992628223        0.0000000000        0.4124073474
    O             0.0064095254        0.5000000000        0.4445343714
    O             0.5064095970        0.5000000000        0.4445335222
    Ru            0.0008011156        0.0000000000        0.5000010000
    Ru            0.5008004468        0.0000000000        0.5000010000
    O             0.2511985180        0.1936136101        0.5000010000
    O             0.7511980771        0.1936126848        0.5000010000
    Ru            0.2517501526        0.5000000000        0.5000010000
    Ru            0.7517480583        0.5000000000        0.5000010000
    O             0.2511985180        0.8063873899        0.5000010000
    O             0.7511980771        0.8063883152        0.5000010000
    O             0.0064095254        0.5000000000        0.5554666286
    O             0.5064095970        0.5000000000        0.5554674778
    O            -0.0007368338        0.0000000000        0.5875936548
    O             0.4992628223        0.0000000000        0.5875936526
    Ru            0.2484598354        0.0000000000        0.6456996676
    Ru            0.7484598698        0.0000000000        0.6456996385
    O             0.2475050350        0.3089262117        0.6424595236
    O             0.7475050891        0.3089260826        0.6424595444
    Ru           -0.0033462420        0.5000000000        0.6424999088
    Ru            0.4966539730        0.5000000000        0.6425003653
    O             0.2475050350        0.6910737883        0.6424595236
    O             0.7475050891        0.6910739174        0.6424595444
    O            -0.0013620496        0.0000000000        0.6926541414
    O             0.4986379915        0.0000000000        0.6926541278
    O            -0.0094133780        0.5000000000        0.7287697933
    O             0.4905867310        0.5000000000        0.7287701702
    H             0.1301406746        0.5000000000        0.2524688967
    H             0.1301406746        0.5000000000        0.7475311033
    H             0.6301407534        0.5000000000        0.2524686046
    H             0.6301407534        0.5000000000        0.7475313954


K_POINTS automatic
2 2 1 1 1 0

CELL_PARAMETERS bohr
12.104053288299633 0.000000 0.000000
0.000000 11.761936877845498 0.000000
0.000000 0.000000 41.825308
