&control
 calculation = 'relax',
 restart_mode = 'from_scratch',
 prefix = 'RuO2-110-0-234',
 tstress = .FALSE.,
 tprnfor = .TRUE.,
 pseudo_dir = '/gpfs/group/ixd4/default/Simon/pseudopotentials/materialscloud/SSSP_1.3.0_PBE_efficiency',
 outdir = '/storage/home/mgm6007/ixd4/Maria/Strain1_Files/RuO2-110-0-234',
 forc_conv_thr = 1.0D-4,
 etot_conv_thr = 1.0D-4,
 nstep = 200
/
&system
 ibrav = 0,
 nat = 46
 ntyp = 3,
 ecutwfc = 50,
 ecutrho = 500,
 occupations = 'smearing',
 smearing = 'mv',
 degauss = 0.03,
 tot_charge = 0.00,
/
&electrons
 electron_maxstep = 100,
 scf_must_converge = .FALSE.,
 diagonalization = 'david',
 mixing_beta = 0.7,
 mixing_mode = 'local-TF',
 conv_thr = 1.0D-9
/
&ions
 ion_dynamics = 'bfgs'
/

ATOMIC_SPECIES
 O 15.999400 O.pbe-n-kjpaw_psl.0.1.UPF
 Ru 101.070000 Ru_ONCV_PBE-1.0.oncvpsp.upf
 H 1.007940 H.pbe-rrkjus_psl.1.0.0.UPF

ATOMIC_POSITIONS crystal
    O             0.0000000000        0.4080922049        0.2733720692
    O             0.5000000000        0.4937435487        0.2734574763
    O             0.0000000000       -0.0005119555        0.2972148566
    O             0.5000000000       -0.0104582394        0.3012628957
    Ru            0.2504654557       -0.0064472491        0.3571204689
    Ru            0.7495345443       -0.0064472491        0.3571204689
    O             0.2562610989        0.3060595822        0.3642356082
    O             0.7437389011        0.3060595822        0.3642356082
    Ru            0.0000000000        0.4901917857        0.3576528846
    Ru            0.5000000000        0.4927202816        0.3518704610
    O             0.2366498767        0.6828907562        0.3546478804
    O             0.7633501233        0.6828907562        0.3546478804
    O             0.0000000000       -0.0035112067        0.4119060279
    O             0.5000000000       -0.0097420944        0.4101466982
    O             0.0000000000        0.5074634558        0.4476402914
    O             0.5000000000        0.5152946296        0.4436350893
    Ru            0.0000000000        0.0102301341        0.5000010000
    Ru            0.5000000000        0.0062603259        0.5000010000
    O             0.2540425339        0.1943643364        0.5000010000
    O             0.7459574661        0.1943643364        0.5000010000
    Ru            0.2524283774        0.5090259689        0.5000010000
    Ru            0.7475716226        0.5090259689        0.5000010000
    O             0.2489998317        0.8230404176        0.5000010000
    O             0.7510001683        0.8230404176        0.5000010000
    O             0.0000000000        0.5074634558        0.5523607086
    O             0.5000000000        0.5152946296        0.5563659107
    O             0.0000000000       -0.0035112067        0.5880949721
    O             0.5000000000       -0.0097420944        0.5898543018
    Ru            0.2504654557       -0.0064472491        0.6428805311
    Ru            0.7495345443       -0.0064472491        0.6428805311
    O             0.2562610989        0.3060595822        0.6357653918
    O             0.7437389011        0.3060595822        0.6357653918
    Ru            0.0000000000        0.4901917857        0.6423481154
    Ru            0.5000000000        0.4927202816        0.6481305390
    O             0.2366498767        0.6828907562        0.6453531196
    O             0.7633501233        0.6828907562        0.6453531196
    O             0.0000000000       -0.0005119555        0.7027871434
    O             0.5000000000       -0.0104582394        0.6987391043
    O             0.0000000000        0.4080922049        0.7266289308
    O             0.5000000000        0.4937435487        0.7265435237
    H             0.0000000000        0.2406952022        0.2759887714
    H             0.0000000000        0.2406952022        0.7240112286
    H             0.5000000000        0.0768017520        0.2623951505
    H             0.5000000000        0.0768017520        0.7376048495
    H             0.0000000000        0.9137555039        0.2595176674
    H             0.0000000000        0.9137555039        0.7404823326


K_POINTS automatic
2 2 1 1 1 0

CELL_PARAMETERS bohr
12.389315578758117 0.000000 0.000000
0.000000 11.209435458935166 0.000000
0.000000 0.000000 41.825308
