&control
 calculation = 'relax',
 restart_mode = 'from_scratch',
 prefix = 'RuO2-110-0-2345',
 tstress = .FALSE.,
 tprnfor = .TRUE.,
 pseudo_dir = '/gpfs/group/ixd4/default/Simon/pseudopotentials/materialscloud/SSSP_1.3.0_PBE_efficiency',
 outdir = '/storage/home/mgm6007/ixd4/Maria/Strain0_Files/RuO2-110-0-2345',
 forc_conv_thr = 1.0D-4,
 etot_conv_thr = 1.0D-4,
 nstep = 200
/
&system
 ibrav = 0,
 nat = 48
 ntyp = 3,
 ecutwfc = 50,
 ecutrho = 500,
 occupations = 'smearing',
 smearing = 'mv',
 degauss = 0.03,
 tot_charge = 0.00,
/
&electrons
 electron_maxstep = 100,
 scf_must_converge = .FALSE.,
 diagonalization = 'david',
 mixing_beta = 0.7,
 mixing_mode = 'local-TF',
 conv_thr = 1.0D-9
/
&ions
 ion_dynamics = 'bfgs'
/

ATOMIC_SPECIES
 O 15.999400 O.pbe-n-kjpaw_psl.0.1.UPF
 Ru 101.070000 Ru_ONCV_PBE-1.0.oncvpsp.upf
 H 1.007940 H.pbe-rrkjus_psl.1.0.0.UPF

ATOMIC_POSITIONS crystal
    O             0.0000000000        0.5000000000        0.2711682697
    O             0.5000000000        0.5000000000        0.2711686527
    O             0.0000000000        0.0000000000        0.2880948693
    O             0.5000000000        0.0000000000        0.2880948773
    Ru            0.2499999686        0.0000000000        0.3608871858
    Ru            0.7500000314       -0.0000000000        0.3608871858
    O             0.2500002364        0.3023459106        0.3556482787
    O             0.7499997636        0.3023459106        0.3556482787
    Ru            0.0000000000        0.5000000000        0.3512458278
    Ru            0.5000000000        0.5000000000        0.3512461943
    O             0.2500002364        0.6976540894        0.3556482787
    O             0.7499997636        0.6976540894        0.3556482787
    O             0.0000000000        0.0000000000        0.4130007019
    O             0.5000000000        0.0000000000        0.4130007345
    O             0.0000000000        0.5000000000        0.4430047110
    O             0.5000000000        0.5000000000        0.4430070905
    Ru            0.0000000000        0.0000000000        0.5000010000
    Ru            0.5000000000        0.0000000000        0.5000010000
    O             0.2499994543        0.1954384728        0.5000010000
    O             0.7500005457        0.1954384728        0.5000010000
    Ru            0.2499971939        0.5000000000        0.5000010000
    Ru            0.7500028061        0.5000000000        0.5000010000
    O             0.2499994543        0.8045625272        0.5000010000
    O             0.7500005457        0.8045625272        0.5000010000
    O             0.0000000000        0.5000000000        0.5569962890
    O             0.5000000000        0.5000000000        0.5569939095
    O             0.0000000000        0.0000000000        0.5870002981
    O             0.5000000000        0.0000000000        0.5870002655
    Ru            0.2499999686       -0.0000000000        0.6391138142
    Ru            0.7500000314        0.0000000000        0.6391138142
    O             0.2500002364        0.3023459106        0.6443527213
    O             0.7499997636        0.3023459106        0.6443527213
    Ru            0.0000000000        0.5000000000        0.6487551722
    Ru            0.5000000000        0.5000000000        0.6487548057
    O             0.2500002364        0.6976540894        0.6443527213
    O             0.7499997636        0.6976540894        0.6443527213
    O             0.0000000000        0.0000000000        0.7119071307
    O             0.5000000000        0.0000000000        0.7119071227
    O             0.0000000000        0.5000000000        0.7288327303
    O             0.5000000000        0.5000000000        0.7288323473
    H             0.0000000000        0.1218018757        0.2624492022
    H             0.0000000000        0.1218018757        0.7375507978
    H             0.5000000000        0.1218018858        0.2624492154
    H             0.5000000000        0.1218018858        0.7375507846
    H             0.0000000000        0.8781981243        0.2624492022
    H             0.0000000000        0.8781981243        0.7375507978
    H             0.5000000000        0.8781981142        0.2624492154
    H             0.5000000000        0.8781981142        0.7375507846


K_POINTS automatic
2 2 1 1 1 0

CELL_PARAMETERS bohr
12.104053288299633 0.000000 0.000000
0.000000 11.761936877845498 0.000000
0.000000 0.000000 41.825308
