&control
 calculation = 'relax',
 restart_mode = 'from_scratch',
 prefix = 'RuO2-110-0-012',
 tstress = .FALSE.,
 tprnfor = .TRUE.,
 pseudo_dir = '/gpfs/group/ixd4/default/Simon/pseudopotentials/materialscloud/SSSP_1.3.0_PBE_efficiency',
 outdir = '/storage/home/mgm6007/ixd4/Maria/Strain0_Files/RuO2-110-0-012',
 forc_conv_thr = 1.0D-4,
 etot_conv_thr = 1.0D-4,
 nstep = 200
/
&system
 ibrav = 0,
 nat = 46
 ntyp = 3,
 ecutwfc = 50,
 ecutrho = 500,
 occupations = 'smearing',
 smearing = 'mv',
 degauss = 0.03,
 tot_charge = 0.00,
/
&electrons
 electron_maxstep = 100,
 scf_must_converge = .FALSE.,
 diagonalization = 'david',
 mixing_beta = 0.7,
 mixing_mode = 'local-TF',
 conv_thr = 1.0D-9
/
&ions
 ion_dynamics = 'bfgs'
/

ATOMIC_SPECIES
 O 15.999400 O.pbe-n-kjpaw_psl.0.1.UPF
 Ru 101.070000 Ru_ONCV_PBE-1.0.oncvpsp.upf
 H 1.007940 H.pbe-rrkjus_psl.1.0.0.UPF

ATOMIC_POSITIONS crystal
    O            -0.0209035506        0.4768238928        0.2707696059
    O             0.5073231690        0.4985518916        0.2684911631
    O            -0.0022603187        0.0070529327        0.2969842167
    O             0.4995108327       -0.0004502689        0.3095181104
    Ru            0.2516928277        0.0010379389        0.3555289381
    Ru            0.7456034502        0.0012080391        0.3562447502
    O             0.2490697722        0.3098184470        0.3569348548
    O             0.7492089331        0.3052847928        0.3581914134
    Ru           -0.0027820245        0.5001764699        0.3585654189
    Ru            0.5009484176        0.5001643120        0.3548524280
    O             0.2456660514        0.6905613407        0.3545737895
    O             0.7520420850        0.6950188906        0.3570731129
    O             0.0011527222        0.0000822462        0.4120715905
    O             0.4974823265       -0.0030832470        0.4122634664
    O             0.0005302921        0.5007124773        0.4460963178
    O             0.5004499654        0.5021438083        0.4417230004
    Ru            0.0017019411       -0.0002955608        0.5000010000
    Ru            0.4973859987        0.0002352699        0.5000010000
    O             0.2509332266        0.1965829478        0.5000010000
    O             0.7485809744        0.1912956665        0.5000010000
    Ru            0.2550107185        0.5003021676        0.5000010000
    Ru            0.7436210538        0.5003418261        0.5000010000
    O             0.2500805628        0.8041117975        0.5000010000
    O             0.7496694014        0.8089056986        0.5000010000
    O             0.0005302921        0.5007124773        0.5539046822
    O             0.5004499654        0.5021438083        0.5582779996
    O             0.0011527222        0.0000822462        0.5879294095
    O             0.4974823265       -0.0030832470        0.5877375336
    Ru            0.2516928277        0.0010379389        0.6444720619
    Ru            0.7456034502        0.0012080391        0.6437562498
    O             0.2490697722        0.3098184470        0.6430661452
    O             0.7492089331        0.3052847928        0.6418095866
    Ru           -0.0027820245        0.5001764699        0.6414355811
    Ru            0.5009484176        0.5001643120        0.6451485720
    O             0.2456660514        0.6905613407        0.6454272105
    O             0.7520420850        0.6950188906        0.6429278871
    O            -0.0022603187        0.0070529327        0.7030177833
    O             0.4995108327       -0.0004502689        0.6904838896
    O            -0.0209035506        0.4768238928        0.7292313941
    O             0.5073231690        0.4985518916        0.7315098369
    H             0.1123513676        0.5069113861        0.2507626345
    H             0.1123513676        0.5069113861        0.7492373655
    H             0.6537023291        0.4931704122        0.2541901303
    H             0.6537023291        0.4931704122        0.7458098697
    H            -0.0040105864        0.1282913311        0.2708998385
    H            -0.0040105864        0.1282913311        0.7291001615


K_POINTS automatic
2 2 1 1 1 0

CELL_PARAMETERS bohr
12.104053288299633 0.000000 0.000000
0.000000 11.761936877845498 0.000000
0.000000 0.000000 41.825308
