&control
 calculation = 'relax',
 restart_mode = 'from_scratch',
 prefix = 'RuO2-110-0-0124',
 tstress = .FALSE.,
 tprnfor = .TRUE.,
 pseudo_dir = '/gpfs/group/ixd4/default/Simon/pseudopotentials/materialscloud/SSSP_1.3.0_PBE_efficiency',
 outdir = '/storage/home/mgm6007/ixd4/Maria/Strain0_Files/RuO2-110-0-0124',
 forc_conv_thr = 1.0D-4,
 etot_conv_thr = 1.0D-4,
 nstep = 200
/
&system
 ibrav = 0,
 nat = 48
 ntyp = 3,
 ecutwfc = 50,
 ecutrho = 500,
 occupations = 'smearing',
 smearing = 'mv',
 degauss = 0.03,
 tot_charge = 0.00,
/
&electrons
 electron_maxstep = 100,
 scf_must_converge = .FALSE.,
 diagonalization = 'david',
 mixing_beta = 0.7,
 mixing_mode = 'local-TF',
 conv_thr = 1.0D-9
/
&ions
 ion_dynamics = 'bfgs'
/

ATOMIC_SPECIES
 O 15.999400 O.pbe-n-kjpaw_psl.0.1.UPF
 Ru 101.070000 Ru_ONCV_PBE-1.0.oncvpsp.upf
 H 1.007940 H.pbe-rrkjus_psl.1.0.0.UPF

ATOMIC_POSITIONS crystal
    O            -0.0037130172        0.5000000000        0.2687166673
    O             0.4958300753        0.5000000000        0.2670283835
    O            -0.0029100556        0.0000000000        0.2883537578
    O             0.4983426748        0.0000000000        0.3077224083
    Ru            0.2561547661        0.0000000000        0.3571842132
    Ru            0.7401228552        0.0000000000        0.3572836277
    O             0.2471640821        0.3069592329        0.3564362086
    O             0.7493781382        0.3065529533        0.3564049097
    Ru           -0.0021851453        0.5000000000        0.3590055545
    Ru            0.4983876258        0.5000000000        0.3553514733
    O             0.2471640821        0.6930407671        0.3564362086
    O             0.7493781382        0.6934470467        0.3564049097
    O            -0.0011417450        0.0000000000        0.4113909254
    O             0.4977024867        0.0000000000        0.4122241132
    O            -0.0014920962        0.5000000000        0.4460819525
    O             0.4987476256        0.5000000000        0.4420408762
    Ru           -0.0005083206        0.0000000000        0.5000010000
    Ru            0.4965520848        0.0000000000        0.5000010000
    O             0.2476834475        0.1953177126        0.5000010000
    O             0.7488217824        0.1917116475        0.5000010000
    Ru            0.2528313976        0.5000000000        0.5000010000
    Ru            0.7431848472        0.5000000000        0.5000010000
    O             0.2476834475        0.8046832874        0.5000010000
    O             0.7488217824        0.8082893525        0.5000010000
    O            -0.0014920962        0.5000000000        0.5539190475
    O             0.4987476256        0.5000000000        0.5579601238
    O            -0.0011417450        0.0000000000        0.5886100746
    O             0.4977024867        0.0000000000        0.5877768868
    Ru            0.2561547661        0.0000000000        0.6428167868
    Ru            0.7401228552        0.0000000000        0.6427173723
    O             0.2471640821        0.3069592329        0.6435647914
    O             0.7493781382        0.3065529533        0.6435960903
    Ru           -0.0021851453        0.5000000000        0.6409954455
    Ru            0.4983876258        0.5000000000        0.6446495267
    O             0.2471640821        0.6930407671        0.6435647914
    O             0.7493781382        0.6934470467        0.6435960903
    O            -0.0029100556        0.0000000000        0.7116482422
    O             0.4983426748        0.0000000000        0.6922795917
    O            -0.0037130172        0.5000000000        0.7312843327
    O             0.4958300753        0.5000000000        0.7329726165
    H             0.1429732774        0.5000000000        0.2555711665
    H             0.1429732774        0.5000000000        0.7444288335
    H             0.6417830616        0.5000000000        0.2531529185
    H             0.6417830616        0.5000000000        0.7468470815
    H            -0.0044760321        0.1206706856        0.2618741163
    H            -0.0044760321        0.1206706856        0.7381258837
    H            -0.0044760321        0.8793293144        0.2618741163
    H            -0.0044760321        0.8793293144        0.7381258837


K_POINTS automatic
2 2 1 1 1 0

CELL_PARAMETERS bohr
12.104053288299633 0.000000 0.000000
0.000000 11.761936877845498 0.000000
0.000000 0.000000 41.825308
