&control
 calculation = 'relax',
 restart_mode = 'from_scratch',
 prefix = 'RuO2-110-0-0123',
 tstress = .FALSE.,
 tprnfor = .TRUE.,
 pseudo_dir = '/gpfs/group/ixd4/default/Simon/pseudopotentials/materialscloud/SSSP_1.3.0_PBE_efficiency',
 outdir = '/storage/home/mgm6007/ixd4/Maria/Strain2_Files/RuO2-110-0-0123',
 forc_conv_thr = 1.0D-4,
 etot_conv_thr = 1.0D-4,
 nstep = 200
/
&system
 ibrav = 0,
 nat = 48
 ntyp = 3,
 ecutwfc = 50,
 ecutrho = 500,
 occupations = 'smearing',
 smearing = 'mv',
 degauss = 0.03,
 tot_charge = 0.00,
/
&electrons
 electron_maxstep = 100,
 scf_must_converge = .FALSE.,
 diagonalization = 'david',
 mixing_beta = 0.7,
 mixing_mode = 'local-TF',
 conv_thr = 1.0D-9
/
&ions
 ion_dynamics = 'bfgs'
/

ATOMIC_SPECIES
 O 15.999400 O.pbe-n-kjpaw_psl.0.1.UPF
 Ru 101.070000 Ru_ONCV_PBE-1.0.oncvpsp.upf
 H 1.007940 H.pbe-rrkjus_psl.1.0.0.UPF

ATOMIC_POSITIONS crystal
    O            -0.0065815523        0.4636878182        0.2686684241
    O             0.4934351936        0.4636911280        0.2686662150
    O            -0.0007567920        0.0104798102        0.3008801299
    O             0.4992431312        0.0104818655        0.3008797407
    Ru            0.2497602566       -0.0014450450        0.3580500179
    Ru            0.7497603720       -0.0014450901        0.3580500316
    O             0.2486025605        0.3096382898        0.3594812676
    O             0.7486025902        0.3096384468        0.3594811797
    Ru           -0.0001274149        0.4980702079        0.3570404501
    Ru            0.4998717811        0.4980702514        0.3570407579
    O             0.2479721431        0.6871948062        0.3537603366
    O             0.7479721703        0.6871946477        0.3537602596
    O            -0.0002399511       -0.0045727624        0.4106647336
    O             0.4997599650       -0.0045728117        0.4106647356
    O            -0.0006431893        0.5056834414        0.4450644631
    O             0.4993568483        0.5056834410        0.4450644629
    Ru            0.0006508155        0.0036457737        0.5000010000
    Ru            0.5006508025        0.0036458006        0.5000010000
    O             0.2513713199        0.1918294158        0.5000010000
    O             0.7513713215        0.1918294812        0.5000010000
    Ru            0.2474474569        0.5044097960        0.5000010000
    Ru            0.7474473553        0.5044097518        0.5000010000
    O             0.2516045229        0.8166809770        0.5000010000
    O             0.7516045351        0.8166809238        0.5000010000
    O            -0.0006431893        0.5056834414        0.5549365369
    O             0.4993568483        0.5056834410        0.5549365371
    O            -0.0002399511       -0.0045727624        0.5893362664
    O             0.4997599650       -0.0045728117        0.5893362644
    Ru            0.2497602566       -0.0014450450        0.6419509821
    Ru            0.7497603720       -0.0014450901        0.6419509684
    O             0.2486025605        0.3096382898        0.6405197324
    O             0.7486025902        0.3096384468        0.6405198203
    Ru           -0.0001274149        0.4980702079        0.6429605499
    Ru            0.4998717811        0.4980702514        0.6429602421
    O             0.2479721431        0.6871948062        0.6462406634
    O             0.7479721703        0.6871946477        0.6462407404
    O            -0.0007567920        0.0104798102        0.6991218701
    O             0.4992431312        0.0104818655        0.6991222593
    O            -0.0065815523        0.4636878182        0.7313325759
    O             0.4934351936        0.4636911280        0.7313347850
    H             0.1310285311        0.4926432240        0.2522054694
    H             0.1310285311        0.4926432240        0.7477945306
    H             0.6310125915        0.4926398079        0.2522073153
    H             0.6310125915        0.4926398079        0.7477926847
    H            -0.0019166134        0.1445537072        0.2752780588
    H            -0.0019166134        0.1445537072        0.7247219412
    H             0.4980833136        0.1445518561        0.2752784074
    H             0.4980833136        0.1445518561        0.7247215926


K_POINTS automatic
2 2 1 1 1 0

CELL_PARAMETERS bohr
12.246684433528877 0.000000 0.000000
0.000000 11.485686168390332 0.000000
0.000000 0.000000 41.825308
