&control
 calculation = 'relax',
 restart_mode = 'from_scratch',
 prefix = 'RuO2-110-0-0125',
 tstress = .FALSE.,
 tprnfor = .TRUE.,
 pseudo_dir = '/gpfs/group/ixd4/default/Simon/pseudopotentials/materialscloud/SSSP_1.3.0_PBE_efficiency',
 outdir = '/storage/home/mgm6007/ixd4/Maria/Strain1_Files/RuO2-110-0-0125',
 forc_conv_thr = 1.0D-4,
 etot_conv_thr = 1.0D-4,
 nstep = 200
/
&system
 ibrav = 0,
 nat = 48
 ntyp = 3,
 ecutwfc = 50,
 ecutrho = 500,
 occupations = 'smearing',
 smearing = 'mv',
 degauss = 0.03,
 tot_charge = 0.00,
/
&electrons
 electron_maxstep = 100,
 scf_must_converge = .FALSE.,
 diagonalization = 'david',
 mixing_beta = 0.7,
 mixing_mode = 'local-TF',
 conv_thr = 1.0D-9
/
&ions
 ion_dynamics = 'bfgs'
/

ATOMIC_SPECIES
 O 15.999400 O.pbe-n-kjpaw_psl.0.1.UPF
 Ru 101.070000 Ru_ONCV_PBE-1.0.oncvpsp.upf
 H 1.007940 H.pbe-rrkjus_psl.1.0.0.UPF

ATOMIC_POSITIONS crystal
 O 0.000000 0.500000 0.260809
 O 0.500000 0.500000 0.260809
 O 0.000000 0.000000 0.294166
 O 0.500000 0.000000 0.294166
 Ru 0.250000 0.000000 0.351658
 Ru 0.750000 0.000000 0.351658
 O 0.250000 0.306215 0.351658
 O 0.750000 0.306215 0.351658
 Ru 0.000000 0.500000 0.351658
 Ru 0.500000 0.500000 0.351658
 O 0.250000 0.693785 0.351658
 O 0.750000 0.693785 0.351658
 O 0.000000 0.000000 0.409151
 O 0.500000 0.000000 0.409151
 O 0.000000 0.500000 0.442508
 O 0.500000 0.500000 0.442508
 Ru 0.000000 0.000000 0.500001
 Ru 0.500000 0.000000 0.500001
 O 0.250000 0.193785 0.500001
 O 0.750000 0.193785 0.500001
 Ru 0.250000 0.500000 0.500001
 Ru 0.750000 0.500000 0.500001
 O 0.250000 0.806216 0.500001
 O 0.750000 0.806216 0.500001
 O 0.000000 0.500000 0.557493
 O 0.500000 0.500000 0.557493
 O 0.000000 0.000000 0.590850
 O 0.500000 0.000000 0.590850
 Ru 0.250000 0.000000 0.648343
 Ru 0.750000 0.000000 0.648343
 O 0.250000 0.306215 0.648343
 O 0.750000 0.306215 0.648343
 Ru 0.000000 0.500000 0.648343
 Ru 0.500000 0.500000 0.648343
 O 0.250000 0.693785 0.648343
 O 0.750000 0.693785 0.648343
 O 0.000000 0.000000 0.705836
 O 0.500000 0.000000 0.705836
 O 0.000000 0.500000 0.739192
 O 0.500000 0.500000 0.739192
 H 0.117635 0.500000 0.226923
 H 0.117635 0.500000 0.773077
 H 0.617635 0.500000 0.226923
 H 0.617635 0.500000 0.773077
 H 0.000000 0.114216 0.260279
 H 0.000000 0.114216 0.739721
 H 0.500000 0.885784 0.260279
 H 0.500000 0.885784 0.739721

K_POINTS automatic
2 2 1 1 1 0

CELL_PARAMETERS bohr
12.389315578758117 0.000000 0.000000
0.000000 11.209435458935166 0.000000
0.000000 0.000000 41.825308
