&control
 calculation = 'relax',
 restart_mode = 'from_scratch',
 prefix = 'RuO2-110-0-0124',
 tstress = .FALSE.,
 tprnfor = .TRUE.,
 pseudo_dir = '/gpfs/group/ixd4/default/Simon/pseudopotentials/materialscloud/SSSP_1.3.0_PBE_efficiency',
 outdir = '/storage/home/mgm6007/ixd4/Maria/Strain1_Files/RuO2-110-0-0124',
 forc_conv_thr = 1.0D-4,
 etot_conv_thr = 1.0D-4,
 nstep = 200
/
&system
 ibrav = 0,
 nat = 48
 ntyp = 3,
 ecutwfc = 50,
 ecutrho = 500,
 occupations = 'smearing',
 smearing = 'mv',
 degauss = 0.03,
 tot_charge = 0.00,
/
&electrons
 electron_maxstep = 100,
 scf_must_converge = .FALSE.,
 diagonalization = 'david',
 mixing_beta = 0.7,
 mixing_mode = 'local-TF',
 conv_thr = 1.0D-9
/
&ions
 ion_dynamics = 'bfgs'
/

ATOMIC_SPECIES
 O 15.999400 O.pbe-n-kjpaw_psl.0.1.UPF
 Ru 101.070000 Ru_ONCV_PBE-1.0.oncvpsp.upf
 H 1.007940 H.pbe-rrkjus_psl.1.0.0.UPF

ATOMIC_POSITIONS crystal
    O             0.0037288428        0.5000000000        0.2664327138
    O             0.4865921978        0.5000000000        0.2674512585
    O            -0.0033153613        0.0000000000        0.2902781121
    O             0.4983998080        0.0000000000        0.3065921517
    Ru            0.2627270458        0.0000000000        0.3576490281
    Ru            0.7347914292        0.0000000000        0.3574841362
    O             0.2482046641        0.3137251017        0.3572009042
    O             0.7513934142        0.3139412569        0.3559942060
    Ru            0.0003569663        0.5000000000        0.3581797350
    Ru            0.4996748103        0.5000000000        0.3561809257
    O             0.2482046641        0.6862748983        0.3572009042
    O             0.7513934142        0.6860587431        0.3559942060
    O            -0.0015739913        0.0000000000        0.4105123474
    O             0.4989799551        0.0000000000        0.4115789220
    O            -0.0003573634        0.5000000000        0.4459830397
    O             0.5004830881        0.5000000000        0.4448153610
    Ru           -0.0016047098        0.0000000000        0.5000010000
    Ru            0.4984130171        0.0000000000        0.5000010000
    O             0.2474090934        0.1859091648        0.5000010000
    O             0.7490430699        0.1859014812        0.5000010000
    Ru            0.2509853708        0.5000000000        0.5000010000
    Ru            0.7494322065        0.5000000000        0.5000010000
    O             0.2474090934        0.8140918352        0.5000010000
    O             0.7490430699        0.8140995188        0.5000010000
    O            -0.0003573634        0.5000000000        0.5540179603
    O             0.5004830881        0.5000000000        0.5551856390
    O            -0.0015739913        0.0000000000        0.5894886526
    O             0.4989799551        0.0000000000        0.5884220780
    Ru            0.2627270458        0.0000000000        0.6423519719
    Ru            0.7347914292        0.0000000000        0.6425168638
    O             0.2482046641        0.3137251017        0.6428000958
    O             0.7513934142        0.3139412569        0.6440067940
    Ru            0.0003569663        0.5000000000        0.6418212650
    Ru            0.4996748103        0.5000000000        0.6438200743
    O             0.2482046641        0.6862748983        0.6428000958
    O             0.7513934142        0.6860587431        0.6440067940
    O            -0.0033153613        0.0000000000        0.7097238879
    O             0.4983998080        0.0000000000        0.6934098483
    O             0.0037288428        0.5000000000        0.7335682862
    O             0.4865921978        0.5000000000        0.7325497415
    H             0.1474477914        0.5000000000        0.2541612872
    H             0.1474477914        0.5000000000        0.7458387128
    H             0.6245235231        0.5000000000        0.2507158518
    H             0.6245235231        0.5000000000        0.7492841482
    H            -0.0057250019        0.1366517670        0.2643032685
    H            -0.0057250019        0.1366517670        0.7356967315
    H            -0.0057250019        0.8633482330        0.2643032685
    H            -0.0057250019        0.8633482330        0.7356967315


K_POINTS automatic
2 2 1 1 1 0

CELL_PARAMETERS bohr
12.389315578758117 0.000000 0.000000
0.000000 11.209435458935166 0.000000
0.000000 0.000000 41.825308
