&control
 calculation = 'relax',
 restart_mode = 'from_scratch',
 prefix = 'RuO2-110-0-01234',
 tstress = .FALSE.,
 tprnfor = .TRUE.,
 pseudo_dir = '/gpfs/group/ixd4/default/Simon/pseudopotentials/materialscloud/SSSP_1.3.0_PBE_efficiency',
 outdir = '/storage/home/mgm6007/ixd4/Maria/Strain2_Files/RuO2-110-0-01234',
 forc_conv_thr = 1.0D-4,
 etot_conv_thr = 1.0D-4,
 nstep = 200
/
&system
 ibrav = 0,
 nat = 50
 ntyp = 3,
 ecutwfc = 50,
 ecutrho = 500,
 occupations = 'smearing',
 smearing = 'mv',
 degauss = 0.03,
 tot_charge = 0.00,
/
&electrons
 electron_maxstep = 100,
 scf_must_converge = .FALSE.,
 diagonalization = 'david',
 mixing_beta = 0.7,
 mixing_mode = 'local-TF',
 conv_thr = 1.0D-9
/
&ions
 ion_dynamics = 'bfgs'
/

ATOMIC_SPECIES
 O 15.999400 O.pbe-n-kjpaw_psl.0.1.UPF
 Ru 101.070000 Ru_ONCV_PBE-1.0.oncvpsp.upf
 H 1.007940 H.pbe-rrkjus_psl.1.0.0.UPF
 
ATOMIC_POSITIONS crystal
    O             0.0098178387        0.4161137967        0.2647093231
    O             0.4896080190        0.4330692585        0.2665099225
    O            -0.0054364455        0.0128127516        0.2965530319
    O             0.4949513421        0.0136701028        0.2987739132
    Ru            0.2476650425       -0.0056613293        0.3580352279
    Ru            0.7417418952       -0.0055995128        0.3580199986
    O             0.2505951749        0.3066107718        0.3611850618
    O             0.7508705375        0.3072353830        0.3612152290
    Ru            0.0004537776        0.4934308668        0.3601878980
    Ru            0.4999160651        0.4949763199        0.3565870377
    O             0.2493846204        0.6826623250        0.3514306174
    O             0.7530138046        0.6827950884        0.3512685064
    O            -0.0039618268       -0.0072622044        0.4109514996
    O             0.4962099019       -0.0048387228        0.4113349961
    O             0.0004667457        0.5147199114        0.4467598354
    O             0.5006833307        0.5144290836        0.4443849183
    Ru           -0.0027383684        0.0107220425        0.5000010000
    Ru            0.4971587430        0.0107309400        0.5000010000
    O             0.2464139126        0.1993479271        0.5000010000
    O             0.7469191872        0.1994527203        0.5000010000
    Ru            0.2536608960        0.5120425635        0.5000010000
    Ru            0.7495754152        0.5121755668        0.5000010000
    O             0.2473702756        0.8237347004        0.5000010000
    O             0.7463091711        0.8236572233        0.5000010000
    O             0.0004667457        0.5147199114        0.5532411646
    O             0.5006833307        0.5144290836        0.5556160817
    O            -0.0039618268       -0.0072622044        0.5890495004
    O             0.4962099019       -0.0048387228        0.5886660039
    Ru            0.2476650425       -0.0056613293        0.6419657721
    Ru            0.7417418952       -0.0055995128        0.6419810014
    O             0.2505951749        0.3066107718        0.6388159382
    O             0.7508705375        0.3072353830        0.6387857710
    Ru            0.0004537776        0.4934308668        0.6398131020
    Ru            0.4999160651        0.4949763199        0.6434139623
    O             0.2493846204        0.6826623250        0.6485703826
    O             0.7530138046        0.6827950884        0.6487324936
    O            -0.0054364455        0.0128127516        0.7034489681
    O             0.4949513421        0.0136701028        0.7012280868
    O             0.0098178387        0.4161137967        0.7352916769
    O             0.4896080190        0.4330692585        0.7334910775
    H             0.1517820778        0.4388478350        0.2500570608
    H             0.1517820778        0.4388478350        0.7499429392
    H             0.6253980141        0.4566416712        0.2486603800
    H             0.6253980141        0.4566416712        0.7513396200
    H             0.0013918242        0.2461551918        0.2709497377
    H             0.0013918242        0.2461551918        0.7290502623
    H             0.4925173049        0.1645954811        0.2786908399
    H             0.4925173049        0.1645954811        0.7213091601
    H            -0.0041336606        0.9128810887        0.2619744180
    H            -0.0041336606        0.9128810887        0.7380255820


K_POINTS automatic
2 2 1 1 1 0

CELL_PARAMETERS bohr
12.246684433528877 0.000000 0.000000
0.000000 11.485686168390332 0.000000
0.000000 0.000000 41.825308
