&control
 calculation = 'relax',
 restart_mode = 'from_scratch',
 prefix = 'RuO2-110-0-025',
 tstress = .FALSE.,
 tprnfor = .TRUE.,
 pseudo_dir = '/gpfs/group/ixd4/default/Simon/pseudopotentials/materialscloud/SSSP_1.3.0_PBE_efficiency',
 outdir = '/storage/home/mgm6007/ixd4/Maria/Strain0_Files/RuO2-110-0-025',
 forc_conv_thr = 1.0D-4,
 etot_conv_thr = 1.0D-4,
 nstep = 200
/
&system
 ibrav = 0,
 nat = 46
 ntyp = 3,
 ecutwfc = 50,
 ecutrho = 500,
 occupations = 'smearing',
 smearing = 'mv',
 degauss = 0.03,
 tot_charge = 0.00,
/
&electrons
 electron_maxstep = 100,
 scf_must_converge = .FALSE.,
 diagonalization = 'david',
 mixing_beta = 0.7,
 mixing_mode = 'local-TF',
 conv_thr = 1.0D-9
/
&ions
 ion_dynamics = 'bfgs'
/

ATOMIC_SPECIES
 O 15.999400 O.pbe-n-kjpaw_psl.0.1.UPF
 Ru 101.070000 Ru_ONCV_PBE-1.0.oncvpsp.upf
 H 1.007940 H.pbe-rrkjus_psl.1.0.0.UPF

ATOMIC_POSITIONS crystal
    O             0.0095699298        0.4572549774        0.2709022540
    O             0.4788181535        0.4968244068        0.2731776848
    O            -0.0006374879        0.0135520063        0.3003997905
    O             0.4974963122       -0.0031796842        0.3033714021
    Ru            0.2484214029       -0.0037729733        0.3589296090
    Ru            0.7485081027       -0.0037317153        0.3583543781
    O             0.2494147628        0.2986240185        0.3608539929
    O             0.7495469483        0.3018152476        0.3580421925
    Ru            0.0006119594        0.4966870000        0.3583775844
    Ru            0.5019651866        0.4934138711        0.3508603675
    O             0.2403652525        0.6953056119        0.3564616772
    O             0.7568313941        0.6905480112        0.3550316873
    O            -0.0035577302       -0.0022244783        0.4111428283
    O             0.5004145163       -0.0086695348        0.4121048133
    O             0.0000326169        0.5002166045        0.4462989208
    O             0.4968152011        0.5016842777        0.4405383257
    Ru           -0.0054067686       -0.0012117452        0.5000010000
    Ru            0.5015240184        0.0000470861        0.5000010000
    O             0.2501320037        0.1898958621        0.5000010000
    O             0.7459412628        0.1976924885        0.5000010000
    Ru            0.2557099410        0.5006567655        0.5000010000
    Ru            0.7435521027        0.5001162111        0.5000010000
    O             0.2483497704        0.8098520737        0.5000010000
    O             0.7480089297        0.8015608950        0.5000010000
    O             0.0000326169        0.5002166045        0.5537020792
    O             0.4968152011        0.5016842777        0.5594626743
    O            -0.0035577302       -0.0022244783        0.5888581717
    O             0.5004145163       -0.0086695348        0.5878961867
    Ru            0.2484214029       -0.0037729733        0.6410713910
    Ru            0.7485081027       -0.0037317153        0.6416466219
    O             0.2494147628        0.2986240185        0.6391470071
    O             0.7495469483        0.3018152476        0.6419588075
    Ru            0.0006119594        0.4966870000        0.6416234156
    Ru            0.5019651866        0.4934138711        0.6491406325
    O             0.2403652525        0.6953056119        0.6435393228
    O             0.7568313941        0.6905480112        0.6449693127
    O            -0.0006374879        0.0135520063        0.6996022095
    O             0.4974963122       -0.0031796842        0.6966305979
    O             0.0095699298        0.4572549774        0.7290987460
    O             0.4788181535        0.4968244068        0.7268233152
    H             0.1533997741        0.4808284068        0.2564833110
    H             0.1533997741        0.4808284068        0.7435166890
    H            -0.0003164261        0.1430861990        0.2776254826
    H            -0.0003164261        0.1430861990        0.7223745174
    H             0.4960295009        0.9524339288        0.2612519222
    H             0.4960295009        0.9524339288        0.7387480778


K_POINTS automatic
2 2 1 1 1 0

CELL_PARAMETERS bohr
12.104053288299633 0.000000 0.000000
0.000000 11.761936877845498 0.000000
0.000000 0.000000 41.825308
