&control
 calculation = 'relax',
 restart_mode = 'from_scratch',
 prefix = 'RuO2-110-0-01',
 tstress = .FALSE.,
 tprnfor = .TRUE.,
 pseudo_dir = '/gpfs/group/ixd4/default/Simon/pseudopotentials/materialscloud/SSSP_1.3.0_PBE_efficiency',
 outdir = '/storage/home/mgm6007/ixd4/Maria/Strain2_Files/RuO2-110-0-01',
 forc_conv_thr = 1.0D-4,
 etot_conv_thr = 1.0D-4,
 nstep = 200
/
&system
 ibrav = 0,
 nat = 44
 ntyp = 3,
 ecutwfc = 50,
 ecutrho = 500,
 occupations = 'smearing',
 smearing = 'mv',
 degauss = 0.03,
 tot_charge = 0.00,
/
&electrons
 electron_maxstep = 100,
 scf_must_converge = .FALSE.,
 diagonalization = 'david',
 mixing_beta = 0.7,
 mixing_mode = 'local-TF',
 conv_thr = 1.0D-9
/
&ions
 ion_dynamics = 'bfgs'
/

ATOMIC_SPECIES
 O 15.999400 O.pbe-n-kjpaw_psl.0.1.UPF
 Ru 101.070000 Ru_ONCV_PBE-1.0.oncvpsp.upf
 H 1.007940 H.pbe-rrkjus_psl.1.0.0.UPF

ATOMIC_POSITIONS crystal
    O            -0.0113244564        0.5000000000        0.2708167329
    O             0.4887116477        0.5000000000        0.2708112122
    O            -0.0001996792        0.0000000000        0.3065356650
    O             0.4998002673        0.0000000000        0.3065356279
    Ru            0.2496990870        0.0000000000        0.3535763004
    Ru            0.7496991269        0.0000000000        0.3535763540
    O             0.2488749599        0.3129387547        0.3576613926
    O             0.7488753289        0.3129392182        0.3576611662
    Ru           -0.0006774696        0.5000000000        0.3575728231
    Ru            0.4993206282        0.5000000000        0.3575736495
    O             0.2488749599        0.6870612453        0.3576613926
    O             0.7488753289        0.6870607818        0.3576611662
    O             0.0001219806        0.0000000000        0.4116076797
    O             0.5001220071        0.0000000000        0.4116076999
    O             0.0045101600        0.5000000000        0.4453307066
    O             0.5045103387        0.5000000000        0.4453307144
    Ru            0.0008133608        0.0000000000        0.5000010000
    Ru            0.5008132634        0.0000000000        0.5000010000
    O             0.2505604492        0.1881502044        0.5000010000
    O             0.7505603670        0.1881502971        0.5000010000
    Ru            0.2523118607        0.5000000000        0.5000010000
    Ru            0.7523116435        0.5000000000        0.5000010000
    O             0.2505604492        0.8118507956        0.5000010000
    O             0.7505603670        0.8118507029        0.5000010000
    O             0.0045101600        0.5000000000        0.5546702934
    O             0.5045103387        0.5000000000        0.5546702856
    O             0.0001219806        0.0000000000        0.5883933203
    O             0.5001220071        0.0000000000        0.5883933001
    Ru            0.2496990870        0.0000000000        0.6464246996
    Ru            0.7496991269        0.0000000000        0.6464246460
    O             0.2488749599        0.3129387547        0.6423396074
    O             0.7488753289        0.3129392182        0.6423398338
    Ru           -0.0006774696        0.5000000000        0.6424281769
    Ru            0.4993206282        0.5000000000        0.6424273505
    O             0.2488749599        0.6870612453        0.6423396074
    O             0.7488753289        0.6870607818        0.6423398338
    O            -0.0001996792        0.0000000000        0.6934663350
    O             0.4998002673        0.0000000000        0.6934663721
    O            -0.0113244564        0.5000000000        0.7291842671
    O             0.4887116477        0.5000000000        0.7291897878
    H             0.1256319549        0.5000000000        0.2519131715
    H             0.1256319549        0.5000000000        0.7480868285
    H             0.6255979488        0.5000000000        0.2519176845
    H             0.6255979488        0.5000000000        0.7480823155


K_POINTS automatic
2 2 1 1 1 0

CELL_PARAMETERS bohr
12.246684433528877 0.000000 0.000000
0.000000 11.485686168390332 0.000000
0.000000 0.000000 41.825308
