&control
 calculation = 'relax',
 restart_mode = 'from_scratch',
 prefix = 'RuO2-110-0-2',
 tstress = .FALSE.,
 tprnfor = .TRUE.,
 pseudo_dir = '/gpfs/group/ixd4/default/Simon/pseudopotentials/materialscloud/SSSP_1.3.0_PBE_efficiency',
 outdir = '/storage/home/mgm6007/ixd4/Maria/Strain0_Files/RuO2-110-0-2',
 forc_conv_thr = 1.0D-4,
 etot_conv_thr = 1.0D-4,
 nstep = 200
/
&system
 ibrav = 0,
 nat = 42
 ntyp = 3,
 ecutwfc = 50,
 ecutrho = 500,
 occupations = 'smearing',
 smearing = 'mv',
 degauss = 0.03,
 tot_charge = 0.00,
/
&electrons
 electron_maxstep = 100,
 scf_must_converge = .FALSE.,
 diagonalization = 'david',
 mixing_beta = 0.7,
 mixing_mode = 'local-TF',
 conv_thr = 1.0D-9
/
&ions
 ion_dynamics = 'bfgs'
/

ATOMIC_SPECIES
 O 15.999400 O.pbe-n-kjpaw_psl.0.1.UPF
 Ru 101.070000 Ru_ONCV_PBE-1.0.oncvpsp.upf
 H 1.007940 H.pbe-rrkjus_psl.1.0.0.UPF

ATOMIC_POSITIONS crystal
    O             0.0000000000        0.5050209338        0.2742228636
    O             0.5000000000        0.5032804939        0.2746131913
    O             0.0000000000        0.0000107852        0.3010526564
    O             0.5000000000        0.0014096070        0.3094958413
    Ru            0.2540875654        0.0035450983        0.3570631779
    Ru            0.7459124346        0.0035450983        0.3570631779
    O             0.2499453163        0.3104389958        0.3584029226
    O             0.7500546837        0.3104389958        0.3584029226
    Ru            0.0000000000        0.5036780767        0.3514786914
    Ru            0.5000000000        0.5035541717        0.3516860440
    O             0.2507653089        0.6959296204        0.3588373180
    O             0.7492346911        0.6959296204        0.3588373180
    O             0.0000000000        0.0026933211        0.4128615332
    O             0.5000000000        0.0027456969        0.4122142268
    O             0.0000000000        0.5027934072        0.4423066747
    O             0.5000000000        0.5023111326        0.4463468583
    Ru            0.0000000000        0.0020984687        0.5000010000
    Ru            0.5000000000        0.0031800521        0.5000010000
    O             0.2488346851        0.1965262076        0.5000010000
    O             0.7511653149        0.1965262076        0.5000010000
    Ru            0.2470336590        0.5023978864        0.5000010000
    Ru            0.7529663410        0.5023978864        0.5000010000
    O             0.2489337900        0.8086413133        0.5000010000
    O             0.7510662100        0.8086413133        0.5000010000
    O             0.0000000000        0.5027934072        0.5576943253
    O             0.5000000000        0.5023111326        0.5536541417
    O             0.0000000000        0.0026933211        0.5871394668
    O             0.5000000000        0.0027456969        0.5877867732
    Ru            0.2540875654        0.0035450983        0.6429378221
    Ru            0.7459124346        0.0035450983        0.6429378221
    O             0.2499453163        0.3104389958        0.6415980774
    O             0.7500546837        0.3104389958        0.6415980774
    Ru            0.0000000000        0.5036780767        0.6485223086
    Ru            0.5000000000        0.5035541717        0.6483149560
    O             0.2507653089        0.6959296204        0.6411636820
    O             0.7492346911        0.6959296204        0.6411636820
    O             0.0000000000        0.0000107852        0.6989493436
    O             0.5000000000        0.0014096070        0.6905061587
    O             0.0000000000        0.5050209338        0.7257781364
    O             0.5000000000        0.5032804939        0.7253878087
    H             0.0000000000        0.0566872773        0.2601280540
    H             0.0000000000        0.0566872773        0.7398719460


K_POINTS automatic
2 2 1 1 1 0

CELL_PARAMETERS bohr
12.104053288299633 0.000000 0.000000
0.000000 11.761936877845498 0.000000
0.000000 0.000000 41.825308
