&control
 calculation = 'relax',
 restart_mode = 'from_scratch',
 prefix = 'RuO2-110-0-023',
 tstress = .FALSE.,
 tprnfor = .TRUE.,
 pseudo_dir = '/gpfs/group/ixd4/default/Simon/pseudopotentials/materialscloud/SSSP_1.3.0_PBE_efficiency',
 outdir = '/storage/home/mgm6007/ixd4/Maria/Strain2_Files/RuO2-110-0-023',
 forc_conv_thr = 1.0D-4,
 etot_conv_thr = 1.0D-4,
 nstep = 200
/
&system
 ibrav = 0,
 nat = 46
 ntyp = 3,
 ecutwfc = 50,
 ecutrho = 500,
 occupations = 'smearing',
 smearing = 'mv',
 degauss = 0.03,
 tot_charge = 0.00,
/
&electrons
 electron_maxstep = 100,
 scf_must_converge = .FALSE.,
 diagonalization = 'david',
 mixing_beta = 0.7,
 mixing_mode = 'local-TF',
 conv_thr = 1.0D-9
/
&ions
 ion_dynamics = 'bfgs'
/

ATOMIC_SPECIES
 O 15.999400 O.pbe-n-kjpaw_psl.0.1.UPF
 Ru 101.070000 Ru_ONCV_PBE-1.0.oncvpsp.upf
 H 1.007940 H.pbe-rrkjus_psl.1.0.0.UPF

ATOMIC_POSITIONS crystal
    O             0.0007724629        0.4657753156        0.2701134662
    O             0.4881759065        0.4922003902        0.2722736292
    O             0.0001354720        0.0057697624        0.3007859116
    O             0.4985485875        0.0030617717        0.3027055626
    Ru            0.2493609918        0.0015481363        0.3588477001
    Ru            0.7487079345        0.0010436209        0.3583734253
    O             0.2486841724        0.3103417807        0.3610812537
    O             0.7503185676        0.3101348443        0.3582489955
    Ru           -0.0004664302        0.4999191930        0.3580889742
    Ru            0.5004329521        0.5008173120        0.3504420279
    O             0.2446766556        0.6927914758        0.3563954357
    O             0.7535779766        0.6907720598        0.3557147106
    O            -0.0024782387       -0.0003414646        0.4109958279
    O             0.5001666877       -0.0009006382        0.4115237584
    O            -0.0012926726        0.5043860128        0.4466652347
    O             0.4997362080        0.5070165854        0.4420374000
    Ru            0.0012812532        0.0035487639        0.5000010000
    Ru            0.5017164539        0.0032377057        0.5000010000
    O             0.2532667616        0.1913340919        0.5000010000
    O             0.7511526239        0.1909934527        0.5000010000
    Ru            0.2530054861        0.5039634228        0.5000010000
    Ru            0.7436646587        0.5038340345        0.5000010000
    O             0.2525082592        0.8160690068        0.5000010000
    O             0.7521283220        0.8158453968        0.5000010000
    O            -0.0012926726        0.5043860128        0.5533357653
    O             0.4997362080        0.5070165854        0.5579636000
    O            -0.0024782387       -0.0003414646        0.5890051721
    O             0.5001666877       -0.0009006382        0.5884772416
    Ru            0.2493609918        0.0015481363        0.6411532999
    Ru            0.7487079345        0.0010436209        0.6416275747
    O             0.2486841724        0.3103417807        0.6389197463
    O             0.7503185676        0.3101348443        0.6417520045
    Ru           -0.0004664302        0.4999191930        0.6419120258
    Ru            0.5004329521        0.5008173120        0.6495589721
    O             0.2446766556        0.6927914758        0.6436055643
    O             0.7535779766        0.6907720598        0.6442862894
    O             0.0001354720        0.0057697624        0.6992160884
    O             0.4985485875        0.0030617717        0.6972964374
    O             0.0007724629        0.4657753156        0.7298875338
    O             0.4881759065        0.4922003902        0.7277273708
    H             0.1344392019        0.5119920470        0.2538063261
    H             0.1344392019        0.5119920470        0.7461936739
    H            -0.0012014676        0.1347787881        0.2735085596
    H            -0.0012014676        0.1347787881        0.7264914404
    H             0.5009781226        0.0829130691        0.2643438124
    H             0.5009781226        0.0829130691        0.7356561876


K_POINTS automatic
2 2 1 1 1 0

CELL_PARAMETERS bohr
12.246684433528877 0.000000 0.000000
0.000000 11.485686168390332 0.000000
0.000000 0.000000 41.825308
