&control
 calculation = 'relax',
 restart_mode = 'from_scratch',
 prefix = 'RuO2-110-0-24',
 tstress = .FALSE.,
 tprnfor = .TRUE.,
 pseudo_dir = '/gpfs/group/ixd4/default/Simon/pseudopotentials/materialscloud/SSSP_1.3.0_PBE_efficiency',
 outdir = '/storage/home/mgm6007/ixd4/Maria/Strain2_Files/RuO2-110-0-24',
 forc_conv_thr = 1.0D-4,
 etot_conv_thr = 1.0D-4,
 nstep = 200
/
&system
 ibrav = 0,
 nat = 44
 ntyp = 3,
 ecutwfc = 50,
 ecutrho = 500,
 occupations = 'smearing',
 smearing = 'mv',
 degauss = 0.03,
 tot_charge = 0.00,
/
&electrons
 electron_maxstep = 100,
 scf_must_converge = .FALSE.,
 diagonalization = 'david',
 mixing_beta = 0.7,
 mixing_mode = 'local-TF',
 conv_thr = 1.0D-9
/
&ions
 ion_dynamics = 'bfgs'
/

ATOMIC_SPECIES
 O 15.999400 O.pbe-n-kjpaw_psl.0.1.UPF
 Ru 101.070000 Ru_ONCV_PBE-1.0.oncvpsp.upf
 H 1.007940 H.pbe-rrkjus_psl.1.0.0.UPF

ATOMIC_POSITIONS crystal
    O             0.0000000000        0.5000000000        0.2741458157
    O             0.5000000000        0.5000000000        0.2729662974
    O             0.0000000000        0.0000000000        0.2898263347
    O             0.5000000000        0.0000000000        0.3074841874
    Ru            0.2614562577       -0.0000000000        0.3582238846
    Ru            0.7385437423        0.0000000000        0.3582238846
    O             0.2500654525        0.3104850154        0.3585245473
    O             0.7499345475        0.3104850154        0.3585245473
    Ru            0.0000000000        0.5000000000        0.3536951763
    Ru            0.5000000000        0.5000000000        0.3509249117
    O             0.2500654525        0.6895149846        0.3585245473
    O             0.7499345475        0.6895149846        0.3585245473
    O             0.0000000000        0.0000000000        0.4111368886
    O             0.5000000000        0.0000000000        0.4122821458
    O             0.0000000000        0.5000000000        0.4450328875
    O             0.5000000000        0.5000000000        0.4448501538
    Ru            0.0000000000        0.0000000000        0.5000010000
    Ru            0.5000000000        0.0000000000        0.5000010000
    O             0.2487255215        0.1880090530        0.5000010000
    O             0.7512744785        0.1880090530        0.5000010000
    Ru            0.2513830472        0.5000000000        0.5000010000
    Ru            0.7486169528        0.5000000000        0.5000010000
    O             0.2487255215        0.8119919470        0.5000010000
    O             0.7512744785        0.8119919470        0.5000010000
    O             0.0000000000        0.5000000000        0.5549681125
    O             0.5000000000        0.5000000000        0.5551508462
    O             0.0000000000        0.0000000000        0.5888641114
    O             0.5000000000        0.0000000000        0.5877188542
    Ru            0.2614562577        0.0000000000        0.6417771154
    Ru            0.7385437423       -0.0000000000        0.6417771154
    O             0.2500654525        0.3104850154        0.6414764527
    O             0.7499345475        0.3104850154        0.6414764527
    Ru            0.0000000000        0.5000000000        0.6463058237
    Ru            0.5000000000        0.5000000000        0.6490760883
    O             0.2500654525        0.6895149846        0.6414764527
    O             0.7499345475        0.6895149846        0.6414764527
    O             0.0000000000        0.0000000000        0.7101756653
    O             0.5000000000        0.0000000000        0.6925178126
    O             0.0000000000        0.5000000000        0.7258551843
    O             0.5000000000        0.5000000000        0.7270347026
    H            -0.0000000000        0.1288708054        0.2626102741
    H             0.0000000000        0.1288708054        0.7373897259
    H             0.0000000000        0.8711291946        0.2626102741
    H            -0.0000000000        0.8711291946        0.7373897259


K_POINTS automatic
2 2 1 1 1 0

CELL_PARAMETERS bohr
12.246684433528877 0.000000 0.000000
0.000000 11.485686168390332 0.000000
0.000000 0.000000 41.825308
