&control
 calculation = 'relax',
 restart_mode = 'from_scratch',
 prefix = 'RuO2-110-0-0',
 tstress = .FALSE.,
 tprnfor = .TRUE.,
 pseudo_dir = '/gpfs/group/ixd4/default/Simon/pseudopotentials/materialscloud/SSSP_1.3.0_PBE_efficiency',
 outdir = '/storage/home/mgm6007/ixd4/Maria/Strain2_Files/RuO2-110-0-0',
 forc_conv_thr = 1.0D-4,
 etot_conv_thr = 1.0D-4,
 nstep = 200
/
&system
 ibrav = 0,
 nat = 42
 ntyp = 3,
 ecutwfc = 50,
 ecutrho = 500,
 occupations = 'smearing',
 smearing = 'mv',
 degauss = 0.03,
 tot_charge = 0.00,
/
&electrons
 electron_maxstep = 100,
 scf_must_converge = .FALSE.,
 diagonalization = 'david',
 mixing_beta = 0.7,
 mixing_mode = 'local-TF',
 conv_thr = 1.0D-9
/
&ions
 ion_dynamics = 'bfgs'
/

ATOMIC_SPECIES
 O 15.999400 O.pbe-n-kjpaw_psl.0.1.UPF
 Ru 101.070000 Ru_ONCV_PBE-1.0.oncvpsp.upf
 H 1.007940 H.pbe-rrkjus_psl.1.0.0.UPF

ATOMIC_POSITIONS crystal
    O             0.0040668824        0.5000000000        0.2608912194
    O             0.4998848677        0.5000000000        0.2650710037
    O            -0.0000348608        0.0000000000        0.2968836528
    O             0.4999013032        0.0000000000        0.2968578621
    Ru            0.2501407982        0.0000000000        0.3492166554
    Ru            0.7499721978        0.0000000000        0.3492727751
    O             0.2494246739        0.3097920735        0.3521377125
    O             0.7506535611        0.3098851069        0.3520517145
    Ru            0.0008177718        0.5000000000        0.3500795257
    Ru            0.4999177418        0.5000000000        0.3473478254
    O             0.2494246739        0.6902079265        0.3521377125
    O             0.7506535611        0.6901148931        0.3520517145
    O             0.0000085356        0.0000000000        0.4093813003
    O             0.5000723432        0.0000000000        0.4093890604
    O             0.0004718669        0.5000000000        0.4421983690
    O             0.5001666288        0.5000000000        0.4424302180
    Ru            0.0000392231        0.0000000000        0.5000010000
    Ru            0.4999919515        0.0000000000        0.5000010000
    O             0.2499983674        0.1898873148        0.5000010000
    O             0.7499765794        0.1899060072        0.5000010000
    Ru            0.2492316253        0.5000000000        0.5000010000
    Ru            0.7500827852        0.5000000000        0.5000010000
    O             0.2499983674        0.8101136852        0.5000010000
    O             0.7499765794        0.8100949928        0.5000010000
    O             0.0004718669        0.5000000000        0.5578026310
    O             0.5001666288        0.5000000000        0.5575707820
    O             0.0000085356        0.0000000000        0.5906196997
    O             0.5000723432        0.0000000000        0.5906119396
    Ru            0.2501407982        0.0000000000        0.6507843446
    Ru            0.7499721978        0.0000000000        0.6507282249
    O             0.2494246739        0.3097920735        0.6478632875
    O             0.7506535611        0.3098851069        0.6479492855
    Ru            0.0008177718        0.5000000000        0.6499214743
    Ru            0.4999177418        0.5000000000        0.6526531746
    O             0.2494246739        0.6902079265        0.6478632875
    O             0.7506535611        0.6901148931        0.6479492855
    O            -0.0000348608        0.0000000000        0.7031183472
    O             0.4999013032        0.0000000000        0.7031441379
    O             0.0040668824        0.5000000000        0.7391097806
    O             0.4998848677        0.5000000000        0.7349299963
    H             0.1124447141        0.5000000000        0.2290737284
    H             0.1124447141        0.5000000000        0.7709262716

K_POINTS automatic
2 2 1 1 1 0

CELL_PARAMETERS bohr
12.246684433528877 0.000000 0.000000
0.000000 11.485686168390332 0.000000
0.000000 0.000000 41.825308
