&control
 calculation = 'relax',
 restart_mode = 'from_scratch',
 prefix = 'RuO2-110-0-0123',
 tstress = .FALSE.,
 tprnfor = .TRUE.,
 pseudo_dir = '/gpfs/group/ixd4/default/Simon/pseudopotentials/materialscloud/SSSP_1.3.0_PBE_efficiency',
 outdir = '/storage/home/mgm6007/ixd4/Maria/Strain1_Files/RuO2-110-0-0123',
 forc_conv_thr = 1.0D-4,
 etot_conv_thr = 1.0D-4,
 nstep = 200
/
&system
 ibrav = 0,
 nat = 48
 ntyp = 3,
 ecutwfc = 50,
 ecutrho = 500,
 occupations = 'smearing',
 smearing = 'mv',
 degauss = 0.03,
 tot_charge = 0.00,
/
&electrons
 electron_maxstep = 100,
 scf_must_converge = .FALSE.,
 diagonalization = 'david',
 mixing_beta = 0.7,
 mixing_mode = 'local-TF',
 conv_thr = 1.0D-9
/
&ions
 ion_dynamics = 'bfgs'
/

ATOMIC_SPECIES
 O 15.999400 O.pbe-n-kjpaw_psl.0.1.UPF
 Ru 101.070000 Ru_ONCV_PBE-1.0.oncvpsp.upf
 H 1.007940 H.pbe-rrkjus_psl.1.0.0.UPF

ATOMIC_POSITIONS crystal
    O            -0.0051968554        0.4406512655        0.2679060897
    O             0.4947987959        0.4406514762        0.2679066392
    O            -0.0036038946        0.0121544431        0.3018861713
    O             0.4963959404        0.0121552187        0.3018861595
    Ru            0.2462965385        0.0006791180        0.3586044554
    Ru            0.7462966818        0.0006793543        0.3586043865
    O             0.2521298837        0.3149444732        0.3613871591
    O             0.7521295566        0.3149446314        0.3613868750
    Ru            0.0016267039        0.5009176894        0.3564307356
    Ru            0.5016268460        0.5009178772        0.3564301635
    O             0.2526278250        0.6874886525        0.3510512728
    O             0.7526275848        0.6874888881        0.3510512818
    O            -0.0031099177       -0.0028905138        0.4111079054
    O             0.4968902543       -0.0028919649        0.4111080066
    O             0.0053781210        0.5132314704        0.4451093348
    O             0.5053778379        0.5132320967        0.4451079367
    Ru           -0.0033330832        0.0085789194        0.5000010000
    Ru            0.4966668941        0.0085788844        0.5000010000
    O             0.2452693700        0.1954878710        0.5000010000
    O             0.7452691898        0.1954878911        0.5000010000
    Ru            0.2568247969        0.5097559505        0.5000010000
    Ru            0.7568226861        0.5097559801        0.5000010000
    O             0.2456811151        0.8238308278        0.5000010000
    O             0.7456802984        0.8238306522        0.5000010000
    O             0.0053781210        0.5132314704        0.5548916652
    O             0.5053778379        0.5132320967        0.5548930633
    O            -0.0031099177       -0.0028905138        0.5888930946
    O             0.4968902543       -0.0028919649        0.5888929934
    Ru            0.2462965385        0.0006791180        0.6413965446
    Ru            0.7462966818        0.0006793543        0.6413966135
    O             0.2521298837        0.3149444732        0.6386138409
    O             0.7521295566        0.3149446314        0.6386141250
    Ru            0.0016267039        0.5009176894        0.6435702644
    Ru            0.5016268460        0.5009178772        0.6435708365
    O             0.2526278250        0.6874886525        0.6489497272
    O             0.7526275848        0.6874888881        0.6489497182
    O            -0.0036038946        0.0121544431        0.6981158287
    O             0.4963959404        0.0121552187        0.6981158405
    O            -0.0051968554        0.4406512655        0.7320949103
    O             0.4947987959        0.4406514762        0.7320943608
    H             0.1284030511        0.4705755549        0.2498725922
    H             0.1284030511        0.4705755549        0.7501274078
    H             0.6284035973        0.4705770161        0.2498723788
    H             0.6284035973        0.4705770161        0.7501276212
    H            -0.0041339865        0.1576362331        0.2781764861
    H            -0.0041339865        0.1576362331        0.7218235139
    H             0.4958648025        0.1576365317        0.2781764378
    H             0.4958648025        0.1576365317        0.7218235622


K_POINTS automatic
2 2 1 1 1 0

CELL_PARAMETERS bohr
12.389315578758117 0.000000 0.000000
0.000000 11.209435458935166 0.000000
0.000000 0.000000 41.825308
