&control
 calculation = 'relax',
 restart_mode = 'from_scratch',
 prefix = 'RuO2-110-0-23',
 tstress = .FALSE.,
 tprnfor = .TRUE.,
 pseudo_dir = '/gpfs/group/ixd4/default/Simon/pseudopotentials/materialscloud/SSSP_1.3.0_PBE_efficiency',
 outdir = '/storage/home/mgm6007/ixd4/Maria/Strain2_Files/RuO2-110-0-23',
 forc_conv_thr = 1.0D-4,
 etot_conv_thr = 1.0D-4,
 nstep = 200
/
&system
 ibrav = 0,
 nat = 44
 ntyp = 3,
 ecutwfc = 50,
 ecutrho = 500,
 occupations = 'smearing',
 smearing = 'mv',
 degauss = 0.03,
 tot_charge = 0.00,
/
&electrons
 electron_maxstep = 100,
 scf_must_converge = .FALSE.,
 diagonalization = 'david',
 mixing_beta = 0.7,
 mixing_mode = 'local-TF',
 conv_thr = 1.0D-9
/
&ions
 ion_dynamics = 'bfgs'
/

ATOMIC_SPECIES
 O 15.999400 O.pbe-n-kjpaw_psl.0.1.UPF
 Ru 101.070000 Ru_ONCV_PBE-1.0.oncvpsp.upf
 H 1.007940 H.pbe-rrkjus_psl.1.0.0.UPF

ATOMIC_POSITIONS crystal
    O             0.0000000000        0.4986168512        0.2737066810
    O             0.5000000000        0.4986169639        0.2737067568
    O             0.0000000000        0.0065579094        0.3037769691
    O             0.5000000000        0.0065560693        0.3037781333
    Ru            0.2500000993        0.0053130243        0.3590783997
    Ru            0.7499999007        0.0053130243        0.3590783997
    O             0.2499999636        0.3146442680        0.3596123008
    O             0.7500000364        0.3146442680        0.3596123008
    Ru            0.0000000000        0.5051627507        0.3519149915
    Ru            0.5000000000        0.5051627764        0.3519150345
    O             0.2499999766        0.6957824072        0.3579946815
    O             0.7500000234        0.6957824072        0.3579946815
    O             0.0000000000        0.0020403017        0.4116384416
    O             0.5000000000        0.0020403153        0.4116383876
    O             0.0000000000        0.5062324606        0.4444690745
    O             0.5000000000        0.5062324707        0.4444690217
    Ru            0.0000000000        0.0052652968        0.5000010000
    Ru            0.5000000000        0.0052652806        0.5000010000
    O             0.2500000257        0.1930219999        0.5000010000
    O             0.7499999743        0.1930219999        0.5000010000
    Ru            0.2499999766        0.5054247514        0.5000010000
    Ru            0.7500000234        0.5054247514        0.5000010000
    O             0.2500000268        0.8175746193        0.5000010000
    O             0.7499999732        0.8175746193        0.5000010000
    O             0.0000000000        0.5062324606        0.5555319255
    O             0.5000000000        0.5062324707        0.5555319783
    O             0.0000000000        0.0020403017        0.5883625584
    O             0.5000000000        0.0020403153        0.5883626124
    Ru            0.2500000993        0.0053130243        0.6409226003
    Ru            0.7499999007        0.0053130243        0.6409226003
    O             0.2499999636        0.3146442680        0.6403886992
    O             0.7500000364        0.3146442680        0.6403886992
    Ru            0.0000000000        0.5051627507        0.6480860085
    Ru            0.5000000000        0.5051627764        0.6480859655
    O             0.2499999766        0.6957824072        0.6420063185
    O             0.7500000234        0.6957824072        0.6420063185
    O             0.0000000000        0.0065579094        0.6962250309
    O             0.5000000000        0.0065560693        0.6962238667
    O             0.0000000000        0.4986168512        0.7262943190
    O             0.5000000000        0.4986169639        0.7262942432
    H             0.0000000000        0.0692231649        0.2631576054
    H             0.0000000000        0.0692231649        0.7368423946
    H             0.5000000000        0.0692249078        0.2631565748
    H             0.5000000000        0.0692249078        0.7368434252


K_POINTS automatic
2 2 1 1 1 0

CELL_PARAMETERS bohr
12.246684433528877 0.000000 0.000000
0.000000 11.485686168390332 0.000000
0.000000 0.000000 41.825308
