&control
 calculation = 'relax',
 restart_mode = 'from_scratch',
 prefix = 'RuO2-110-0-025',
 tstress = .FALSE.,
 tprnfor = .TRUE.,
 pseudo_dir = '/gpfs/group/ixd4/default/Simon/pseudopotentials/materialscloud/SSSP_1.3.0_PBE_efficiency',
 outdir = '/storage/home/mgm6007/ixd4/Maria/Strain1_Files/RuO2-110-0-025',
 forc_conv_thr = 1.0D-4,
 etot_conv_thr = 1.0D-4,
 nstep = 200
/
&system
 ibrav = 0,
 nat = 46
 ntyp = 3,
 ecutwfc = 50,
 ecutrho = 500,
 occupations = 'smearing',
 smearing = 'mv',
 degauss = 0.03,
 tot_charge = 0.00,
/
&electrons
 electron_maxstep = 100,
 scf_must_converge = .FALSE.,
 diagonalization = 'david',
 mixing_beta = 0.7,
 mixing_mode = 'local-TF',
 conv_thr = 1.0D-9
/
&ions
 ion_dynamics = 'bfgs'
/

ATOMIC_SPECIES
 O 15.999400 O.pbe-n-kjpaw_psl.0.1.UPF
 Ru 101.070000 Ru_ONCV_PBE-1.0.oncvpsp.upf
 H 1.007940 H.pbe-rrkjus_psl.1.0.0.UPF

ATOMIC_POSITIONS crystal
    O             0.0027843159        0.4380853039        0.2687169835
    O             0.4860980090        0.4850890377        0.2727103513
    O             0.0004714370        0.0071967872        0.3014520539
    O             0.4991119268       -0.0000388271        0.3045757457
    Ru            0.2494414515       -0.0037508407        0.3589739607
    Ru            0.7501985097       -0.0040994642        0.3586936382
    O             0.2482722839        0.3082990982        0.3626777011
    O             0.7499594900        0.3085051991        0.3601905220
    Ru           -0.0007075077        0.4955473169        0.3574926122
    Ru            0.5000665899        0.4948261997        0.3508566400
    O             0.2423973467        0.6857812844        0.3542347573
    O             0.7549570558        0.6839128980        0.3534118606
    O            -0.0007432708       -0.0044571636        0.4111653005
    O             0.5009823872       -0.0080016252        0.4117669900
    O            -0.0032313693        0.5049045736        0.4461919422
    O             0.4968612227        0.5056618569        0.4428624216
    Ru            0.0021031606        0.0019806142        0.5000010000
    Ru            0.5026455114        0.0036900901        0.5000010000
    O             0.2540339578        0.1897956153        0.5000010000
    O             0.7544150817        0.1892390934        0.5000010000
    Ru            0.2460861347        0.5037956794        0.5000010000
    Ru            0.7422024150        0.5032905658        0.5000010000
    O             0.2549005022        0.8174830160        0.5000010000
    O             0.7536251294        0.8170365336        0.5000010000
    O            -0.0032313693        0.5049045736        0.5538090578
    O             0.4968612227        0.5056618569        0.5571385784
    O            -0.0007432708       -0.0044571636        0.5888356995
    O             0.5009823872       -0.0080016252        0.5882340100
    Ru            0.2494414515       -0.0037508407        0.6410270393
    Ru            0.7501985097       -0.0040994642        0.6413073618
    O             0.2482722839        0.3082990982        0.6373232989
    O             0.7499594900        0.3085051991        0.6398104780
    Ru           -0.0007075077        0.4955473169        0.6425083878
    Ru            0.5000665899        0.4948261997        0.6491443600
    O             0.2423973467        0.6857812844        0.6457662427
    O             0.7549570558        0.6839128980        0.6465891394
    O             0.0004714370        0.0071967872        0.6985499461
    O             0.4991119268       -0.0000388271        0.6954262543
    O             0.0027843159        0.4380853039        0.7312840165
    O             0.4860980090        0.4850890377        0.7272906487
    H             0.1372538012        0.4741082670        0.2520888386
    H             0.1372538012        0.4741082670        0.7479111614
    H             0.0000943032        0.1551088578        0.2788918697
    H             0.0000943032        0.1551088578        0.7211081303
    H             0.4983610708        0.9601666364        0.2617882786
    H             0.4983610708        0.9601666364        0.7382117214


K_POINTS automatic
2 2 1 1 1 0

CELL_PARAMETERS bohr
12.389315578758117 0.000000 0.000000
0.000000 11.209435458935166 0.000000
0.000000 0.000000 41.825308
