&control
 calculation = 'relax',
 restart_mode = 'from_scratch',
 prefix = 'RuO2-110-0-035',
 tstress = .FALSE.,
 tprnfor = .TRUE.,
 pseudo_dir = '/gpfs/group/ixd4/default/Simon/pseudopotentials/materialscloud/SSSP_1.3.0_PBE_efficiency',
 outdir = '/storage/home/mgm6007/ixd4/Maria/Strain0_Files/RuO2-110-0-035',
 forc_conv_thr = 1.0D-4,
 etot_conv_thr = 1.0D-4,
 nstep = 200
/
&system
 ibrav = 0,
 nat = 46
 ntyp = 3,
 ecutwfc = 50,
 ecutrho = 500,
 occupations = 'smearing',
 smearing = 'mv',
 degauss = 0.03,
 tot_charge = 0.00,
/
&electrons
 electron_maxstep = 100,
 scf_must_converge = .FALSE.,
 diagonalization = 'david',
 mixing_beta = 0.7,
 mixing_mode = 'local-TF',
 conv_thr = 1.0D-9
/
&ions
 ion_dynamics = 'bfgs'
/

ATOMIC_SPECIES
 O 15.999400 O.pbe-n-kjpaw_psl.0.1.UPF
 Ru 101.070000 Ru_ONCV_PBE-1.0.oncvpsp.upf
 H 1.007940 H.pbe-rrkjus_psl.1.0.0.UPF

ATOMIC_POSITIONS crystal
    O             0.0178249133        0.5000000000        0.2704195080
    O             0.4710546602        0.5000000000        0.2739151670
    O            -0.0015694279        0.0000000000        0.3080714643
    O             0.4965735031        0.0000000000        0.2887400776
    Ru            0.2387225464        0.0000000000        0.3581746404
    Ru            0.7548744333        0.0000000000        0.3571346112
    O             0.2466952847        0.3031093854        0.3592079218
    O             0.7517147245        0.3080153973        0.3559065402
    Ru            0.0025687583        0.5000000000        0.3577902348
    Ru            0.5038404665        0.5000000000        0.3527701612
    O             0.2466952847        0.6968906146        0.3592079218
    O             0.7517147245        0.6919846027        0.3559065402
    O            -0.0044769613        0.0000000000        0.4125313636
    O             0.5009946916        0.0000000000        0.4115817700
    O            -0.0026600626        0.5000000000        0.4459546620
    O             0.4932852544        0.5000000000        0.4413552556
    Ru           -0.0064267085        0.0000000000        0.5000010000
    Ru            0.4995895314        0.0000000000        0.5000010000
    O             0.2499375976        0.1904850035        0.5000010000
    O             0.7437629617        0.1978235184        0.5000010000
    Ru            0.2522950439        0.5000000000        0.5000010000
    Ru            0.7435733749        0.5000000000        0.5000010000
    O             0.2499375976        0.8095159965        0.5000010000
    O             0.7437629617        0.8021774816        0.5000010000
    O            -0.0026600626        0.5000000000        0.5540463380
    O             0.4932852544        0.5000000000        0.5586457444
    O            -0.0044769613        0.0000000000        0.5874696364
    O             0.5009946916        0.0000000000        0.5884192300
    Ru            0.2387225464        0.0000000000        0.6418263596
    Ru            0.7548744333        0.0000000000        0.6428663888
    O             0.2466952847        0.3031093854        0.6407930782
    O             0.7517147245        0.3080153973        0.6440944598
    Ru            0.0025687583        0.5000000000        0.6422107652
    Ru            0.5038404665        0.5000000000        0.6472308388
    O             0.2466952847        0.6968906146        0.6407930782
    O             0.7517147245        0.6919846027        0.6440944598
    O            -0.0015694279        0.0000000000        0.6919305357
    O             0.4965735031        0.0000000000        0.7112619224
    O             0.0178249133        0.5000000000        0.7295814920
    O             0.4710546602        0.5000000000        0.7260858330
    H             0.1684169902        0.5000000000        0.2598574202
    H             0.1684169902        0.5000000000        0.7401425798
    H             0.4965745180        0.1189420830        0.2616640674
    H             0.4965745180        0.1189420830        0.7383359326
    H             0.4965745180        0.8810579170        0.2616640674
    H             0.4965745180        0.8810579170        0.7383359326


K_POINTS automatic
2 2 1 1 1 0

CELL_PARAMETERS bohr
12.104053288299633 0.000000 0.000000
0.000000 11.761936877845498 0.000000
0.000000 0.000000 41.825308
