&control
 calculation = 'relax',
 restart_mode = 'from_scratch',
 prefix = 'RuO2-110-0-024',
 tstress = .FALSE.,
 tprnfor = .TRUE.,
 pseudo_dir = '/gpfs/group/ixd4/default/Simon/pseudopotentials/materialscloud/SSSP_1.3.0_PBE_efficiency',
 outdir = '/storage/home/mgm6007/ixd4/Maria/Strain0_Files/RuO2-110-0-024',
 forc_conv_thr = 1.0D-4,
 etot_conv_thr = 1.0D-4,
 nstep = 200
/
&system
 ibrav = 0,
 nat = 46
 ntyp = 3,
 ecutwfc = 50,
 ecutrho = 500,
 occupations = 'smearing',
 smearing = 'mv',
 degauss = 0.03,
 tot_charge = 0.00,
/
&electrons
 electron_maxstep = 100,
 scf_must_converge = .FALSE.,
 diagonalization = 'david',
 mixing_beta = 0.7,
 mixing_mode = 'local-TF',
 conv_thr = 1.0D-9
/
&ions
 ion_dynamics = 'bfgs'
/

ATOMIC_SPECIES
 O 15.999400 O.pbe-n-kjpaw_psl.0.1.UPF
 Ru 101.070000 Ru_ONCV_PBE-1.0.oncvpsp.upf
 H 1.007940 H.pbe-rrkjus_psl.1.0.0.UPF

ATOMIC_POSITIONS crystal
    O             0.0137326056        0.5000000000        0.2702204532
    O             0.4776861363        0.5000000000        0.2718925209
    O            -0.0020597233        0.0000000000        0.2892144175
    O             0.4969172970        0.0000000000        0.3079550258
    Ru            0.2564272363        0.0000000000        0.3580982156
    Ru            0.7399595341        0.0000000000        0.3572866357
    O             0.2456872122        0.3039497641        0.3585670939
    O             0.7510967288        0.3073794411        0.3559726038
    Ru           -0.0003166044        0.5000000000        0.3590619009
    Ru            0.5000176307        0.5000000000        0.3500641929
    O             0.2456872122        0.6960502359        0.3585670939
    O             0.7510967288        0.6926205589        0.3559726038
    O            -0.0047818451        0.0000000000        0.4117351574
    O             0.4991663796        0.0000000000        0.4124824732
    O            -0.0005083545        0.5000000000        0.4464012809
    O             0.4978757699        0.5000000000        0.4406023049
    Ru           -0.0041412588        0.0000000000        0.5000010000
    Ru            0.5004175931        0.0000000000        0.5000010000
    O             0.2480217080        0.1911387298        0.5000010000
    O             0.7476853274        0.1965381164        0.5000010000
    Ru            0.2561116303        0.5000000000        0.5000010000
    Ru            0.7418424514        0.5000000000        0.5000010000
    O             0.2480217080        0.8088622702        0.5000010000
    O             0.7476853274        0.8034628836        0.5000010000
    O            -0.0005083545        0.5000000000        0.5535997191
    O             0.4978757699        0.5000000000        0.5593986951
    O            -0.0047818451        0.0000000000        0.5882658426
    O             0.4991663796        0.0000000000        0.5875185268
    Ru            0.2564272363        0.0000000000        0.6419027844
    Ru            0.7399595341        0.0000000000        0.6427143643
    O             0.2456872122        0.3039497641        0.6414339061
    O             0.7510967288        0.3073794411        0.6440283962
    Ru           -0.0003166044        0.5000000000        0.6409390991
    Ru            0.5000176307        0.5000000000        0.6499368071
    O             0.2456872122        0.6960502359        0.6414339061
    O             0.7510967288        0.6926205589        0.6440283962
    O            -0.0020597233        0.0000000000        0.7107875825
    O             0.4969172970        0.0000000000        0.6920469742
    O             0.0137326056        0.5000000000        0.7297805468
    O             0.4776861363        0.5000000000        0.7281084791
    H             0.1630990173        0.5000000000        0.2589666086
    H             0.1630990173        0.5000000000        0.7410333914
    H            -0.0029851023        0.1200879311        0.2624653802
    H            -0.0029851023        0.1200879311        0.7375346198
    H            -0.0029851023        0.8799120689        0.2624653802
    H            -0.0029851023        0.8799120689        0.7375346198


K_POINTS automatic
2 2 1 1 1 0

CELL_PARAMETERS bohr
12.104053288299633 0.000000 0.000000
0.000000 11.761936877845498 0.000000
0.000000 0.000000 41.825308
