&control
 calculation = 'relax',
 restart_mode = 'from_scratch',
 prefix = 'RuO2-110-0-0',
 tstress = .FALSE.,
 tprnfor = .TRUE.,
 pseudo_dir = '/gpfs/group/ixd4/default/Simon/pseudopotentials/materialscloud/SSSP_1.3.0_PBE_efficiency',
 outdir = '/storage/home/mgm6007/ixd4/Maria/Strain0_Files/RuO2-110-0-0',
 forc_conv_thr = 1.0D-4,
 etot_conv_thr = 1.0D-4,
 nstep = 200
/
&system
 ibrav = 0,
 nat = 42
 ntyp = 3,
 ecutwfc = 50,
 ecutrho = 500,
 occupations = 'smearing',
 smearing = 'mv',
 degauss = 0.03,
 tot_charge = 0.00,
/
&electrons
 electron_maxstep = 100,
 scf_must_converge = .FALSE.,
 diagonalization = 'david',
 mixing_beta = 0.7,
 mixing_mode = 'local-TF',
 conv_thr = 1.0D-9
/
&ions
 ion_dynamics = 'bfgs'
/

ATOMIC_SPECIES
 O 15.999400 O.pbe-n-kjpaw_psl.0.1.UPF
 Ru 101.070000 Ru_ONCV_PBE-1.0.oncvpsp.upf
 H 1.007940 H.pbe-rrkjus_psl.1.0.0.UPF

ATOMIC_POSITIONS crystal
    O            -0.0077094538        0.5000000000        0.2729145902
    O             0.5006016689        0.5000000000        0.2735775315
    O            -0.0005763697        0.0000000000        0.3078238342
    O             0.4997061937        0.0000000000        0.3076789896
    Ru            0.2496083456        0.0000000000        0.3547547854
    Ru            0.7493724179        0.0000000000        0.3550245907
    O             0.2469728406        0.3081422964        0.3582342476
    O             0.7498513043        0.3074239685        0.3583488092
    Ru           -0.0036655962        0.5000000000        0.3584298685
    Ru            0.4970576434        0.5000000000        0.3504521281
    O             0.2469728406        0.6918577035        0.3582342476
    O             0.7498513043        0.6925760315        0.3583488092
    O             0.0011599171        0.0000000000        0.4126924661
    O             0.4988522445        0.0000000000        0.4126027672
    O             0.0041895000        0.5000000000        0.4463063654
    O             0.5039344370        0.5000000000        0.4413478090
    Ru            0.0027107441        0.0000000000        0.5000010000
    Ru            0.4990716854        0.0000000000        0.5000010000
    O             0.2530545590        0.1958586889        0.5000010000
    O             0.7496782345        0.1914674722        0.5000010000
    Ru            0.2580963363        0.5000000000        0.5000010000
    Ru            0.7442285879        0.5000000000        0.5000010000
    O             0.2530545590        0.8041423111        0.5000010000
    O             0.7496782345        0.8085335278        0.5000010000
    O             0.0041895000        0.5000000000        0.5536946346
    O             0.5039344370        0.5000000000        0.5586531910
    O             0.0011599171        0.0000000000        0.5873085339
    O             0.4988522445        0.0000000000        0.5873982328
    Ru            0.2496083456        0.0000000000        0.6452462146
    Ru            0.7493724179        0.0000000000        0.6449764093
    O             0.2469728406        0.3081422964        0.6417667524
    O             0.7498513043        0.3074239685        0.6416521908
    Ru           -0.0036655962        0.5000000000        0.6415711315
    Ru            0.4970576434        0.5000000000        0.6495488719
    O             0.2469728406        0.6918577035        0.6417667524
    O             0.7498513043        0.6925760315        0.6416521908
    O            -0.0005763697        0.0000000000        0.6921781658
    O             0.4997061937        0.0000000000        0.6923230104
    O            -0.0077094538        0.5000000000        0.7270864098
    O             0.5006016689        0.5000000000        0.7264234685
    H             0.1266692915        0.5000000000        0.2513335589
    H             0.1266692915        0.5000000000        0.7486664411


K_POINTS automatic
2 2 1 1 1 0

CELL_PARAMETERS bohr
12.104053288299633 0.000000 0.000000
0.000000 11.761936877845498 0.000000
0.000000 0.000000 41.825308
