&control
 calculation = 'relax',
 restart_mode = 'from_scratch',
 prefix = 'RuO2-110-0-23',
 tstress = .FALSE.,
 tprnfor = .TRUE.,
 pseudo_dir = '/gpfs/group/ixd4/default/Simon/pseudopotentials/materialscloud/SSSP_1.3.0_PBE_efficiency',
 outdir = '/storage/home/mgm6007/ixd4/Maria/Strain0_Files/RuO2-110-0-23',
 forc_conv_thr = 1.0D-4,
 etot_conv_thr = 1.0D-4,
 nstep = 200
/
&system
 ibrav = 0,
 nat = 44
 ntyp = 3,
 ecutwfc = 50,
 ecutrho = 500,
 occupations = 'smearing',
 smearing = 'mv',
 degauss = 0.03,
 tot_charge = 0.00,
/
&electrons
 electron_maxstep = 100,
 scf_must_converge = .FALSE.,
 diagonalization = 'david',
 mixing_beta = 0.7,
 mixing_mode = 'local-TF',
 conv_thr = 1.0D-9
/
&ions
 ion_dynamics = 'bfgs'
/

ATOMIC_SPECIES
 O 15.999400 O.pbe-n-kjpaw_psl.0.1.UPF
 Ru 101.070000 Ru_ONCV_PBE-1.0.oncvpsp.upf
 H 1.007940 H.pbe-rrkjus_psl.1.0.0.UPF

ATOMIC_POSITIONS crystal
    O             0.0000000000        0.5054642511        0.2736172834
    O             0.5000000000        0.5055120037        0.2748704708
    O             0.0000000000        0.0065529168        0.3037288458
    O             0.5000000000        0.0065830916        0.3037728003
    Ru            0.2500108978        0.0071028703        0.3590926913
    Ru            0.7499891022        0.0071028703        0.3590926913
    O             0.2504093908        0.3117880796        0.3585283685
    O             0.7495906092        0.3117880796        0.3585283685
    Ru            0.0000000000        0.5072167385        0.3514497993
    Ru            0.5000000000        0.5072011247        0.3526327387
    O             0.2504023941        0.7023444607        0.3582465268
    O             0.7495976059        0.7023444607        0.3582465268
    O             0.0000000000        0.0063135622        0.4116734281
    O             0.5000000000        0.0062723694        0.4117340337
    O             0.0000000000        0.5080984875        0.4417852992
    O             0.5000000000        0.5080779434        0.4458926909
    Ru            0.0000000000        0.0082197014        0.5000010000
    Ru            0.5000000000        0.0082357170        0.5000010000
    O             0.2488127754        0.2020423847        0.5000010000
    O             0.7511872246        0.2020423847        0.5000010000
    Ru            0.2458418831        0.5081631970        0.5000010000
    Ru            0.7541581169        0.5081631970        0.5000010000
    O             0.2487605642        0.8140927003        0.5000010000
    O             0.7512394358        0.8140927003        0.5000010000
    O             0.0000000000        0.5080984875        0.5582157008
    O             0.5000000000        0.5080779434        0.5541083091
    O             0.0000000000        0.0063135622        0.5883275719
    O             0.5000000000        0.0062723694        0.5882669663
    Ru            0.2500108978        0.0071028703        0.6409083087
    Ru            0.7499891022        0.0071028703        0.6409083087
    O             0.2504093908        0.3117880796        0.6414726315
    O             0.7495906092        0.3117880796        0.6414726315
    Ru            0.0000000000        0.5072167385        0.6485512007
    Ru            0.5000000000        0.5072011247        0.6473682613
    O             0.2504023941        0.7023444607        0.6417544732
    O             0.7495976059        0.7023444607        0.6417544732
    O             0.0000000000        0.0065529168        0.6962731542
    O             0.5000000000        0.0065830916        0.6962291997
    O             0.0000000000        0.5054642511        0.7263837166
    O             0.5000000000        0.5055120037        0.7251305292
    H             0.0000000000        0.0431157874        0.2610346252
    H             0.0000000000        0.0431157874        0.7389653748
    H             0.5000000000        0.0430279116        0.2610707573
    H             0.5000000000        0.0430279116        0.7389292427


K_POINTS automatic
2 2 1 1 1 0

CELL_PARAMETERS bohr
12.104053288299633 0.000000 0.000000
0.000000 11.761936877845498 0.000000
0.000000 0.000000 41.825308
