&control
 calculation = 'relax',
 restart_mode = 'from_scratch',
 prefix = 'RuO2-110-0-03',
 tstress = .FALSE.,
 tprnfor = .TRUE.,
 pseudo_dir = '/gpfs/group/ixd4/default/Simon/pseudopotentials/materialscloud/SSSP_1.3.0_PBE_efficiency',
 outdir = '/storage/home/mgm6007/ixd4/Maria/Strain1_Files/RuO2-110-0-03',
 forc_conv_thr = 1.0D-4,
 etot_conv_thr = 1.0D-4,
 nstep = 200
/
&system
 ibrav = 0,
 nat = 44
 ntyp = 3,
 ecutwfc = 50,
 ecutrho = 500,
 occupations = 'smearing',
 smearing = 'mv',
 degauss = 0.03,
 tot_charge = 0.00,
/
&electrons
 electron_maxstep = 100,
 scf_must_converge = .FALSE.,
 diagonalization = 'david',
 mixing_beta = 0.7,
 mixing_mode = 'local-TF',
 conv_thr = 1.0D-9
/
&ions
 ion_dynamics = 'bfgs'
/

ATOMIC_SPECIES
 O 15.999400 O.pbe-n-kjpaw_psl.0.1.UPF
 Ru 101.070000 Ru_ONCV_PBE-1.0.oncvpsp.upf
 H 1.007940 H.pbe-rrkjus_psl.1.0.0.UPF

ATOMIC_POSITIONS crystal
    O             0.0070050349        0.5031346368        0.2716791502
    O             0.4780829962        0.5027905632        0.2739665797
    O            -0.0008722915        0.0007932153        0.3088514568
    O             0.4968079598       -0.0013154771        0.3000524368
    Ru            0.2439411390        0.0027238357        0.3568587404
    Ru            0.7519411241        0.0029764238        0.3561228598
    O             0.2475600467        0.3067647030        0.3590970145
    O             0.7517832321        0.3105803770        0.3566279091
    Ru            0.0021863197        0.5025724285        0.3580943607
    Ru            0.5036744187        0.5031653266        0.3513100412
    O             0.2472538764        0.6980283645        0.3593584482
    O             0.7520493283        0.6942981996        0.3570813556
    O            -0.0035063116        0.0016917073        0.4119917494
    O             0.5016083072        0.0022603321        0.4124262389
    O            -0.0000772691        0.5018178968        0.4463148565
    O             0.4963743447        0.5020365520        0.4409392141
    Ru           -0.0047399499        0.0024710388        0.5000010000
    Ru            0.5013208618        0.0015564894        0.5000010000
    O             0.2503017143        0.1925849513        0.5000010000
    O             0.7467069922        0.1996538426        0.5000010000
    Ru            0.2552586675        0.5017394611        0.5000010000
    Ru            0.7439239763        0.5018639043        0.5000010000
    O             0.2503588294        0.8113920054        0.5000010000
    O             0.7465548735        0.8042247852        0.5000010000
    O            -0.0000772691        0.5018178968        0.5536861435
    O             0.4963743447        0.5020365520        0.5590617859
    O            -0.0035063116        0.0016917073        0.5880092506
    O             0.5016083072        0.0022603321        0.5875747611
    Ru            0.2439411390        0.0027238357        0.6431422596
    Ru            0.7519411241        0.0029764238        0.6438781402
    O             0.2475600467        0.3067647030        0.6409039855
    O             0.7517832321        0.3105803770        0.6433730909
    Ru            0.0021863197        0.5025724285        0.6419066393
    Ru            0.5036744187        0.5031653266        0.6486909588
    O             0.2472538764        0.6980283645        0.6406425518
    O             0.7520493283        0.6942981996        0.6429196444
    O            -0.0008722915        0.0007932153        0.6911505432
    O             0.4968079598       -0.0013154771        0.6999495632
    O             0.0070050349        0.5031346368        0.7283218498
    O             0.4780829962        0.5027905632        0.7260344203
    H             0.1511891671        0.5060965815        0.2558815142
    H             0.1511891671        0.5060965815        0.7441184858
    H             0.4957905947        0.0660580942        0.2606334333
    H             0.4957905947        0.0660580942        0.7393665667

K_POINTS automatic
2 2 1 1 1 0

CELL_PARAMETERS bohr
12.389315578758117 0.000000 0.000000
0.000000 11.209435458935166 0.000000
0.000000 0.000000 41.825308
