&control
 calculation = 'relax',
 restart_mode = 'from_scratch',
 prefix = 'RuO2-110-0-234',
 tstress = .FALSE.,
 tprnfor = .TRUE.,
 pseudo_dir = '/gpfs/group/ixd4/default/Simon/pseudopotentials/materialscloud/SSSP_1.3.0_PBE_efficiency',
 outdir = '/storage/home/mgm6007/ixd4/Maria/Strain0_Files/RuO2-110-0-234',
 forc_conv_thr = 1.0D-4,
 etot_conv_thr = 1.0D-4,
 nstep = 200
/
&system
 ibrav = 0,
 nat = 46
 ntyp = 3,
 ecutwfc = 50,
 ecutrho = 500,
 occupations = 'smearing',
 smearing = 'mv',
 degauss = 0.03,
 tot_charge = 0.00,
/
&electrons
 electron_maxstep = 100,
 scf_must_converge = .FALSE.,
 diagonalization = 'david',
 mixing_beta = 0.7,
 mixing_mode = 'local-TF',
 conv_thr = 1.0D-9
/
&ions
 ion_dynamics = 'bfgs'
/

ATOMIC_SPECIES
 O 15.999400 O.pbe-n-kjpaw_psl.0.1.UPF
 Ru 101.070000 Ru_ONCV_PBE-1.0.oncvpsp.upf
 H 1.007940 H.pbe-rrkjus_psl.1.0.0.UPF

ATOMIC_POSITIONS crystal
    O             0.0000000000        0.5798654754        0.2770322882
    O             0.5000000000        0.4888818536        0.2735683063
    O             0.0000000000       -0.0368881505        0.2939444941
    O             0.5000000000        0.0090415969        0.3004378737
    Ru            0.2531947351        0.0068626799        0.3600354151
    Ru            0.7468052649        0.0068626799        0.3600354151
    O             0.2384385797        0.3101659762        0.3548939933
    O             0.7615614203        0.3101659762        0.3548939933
    Ru            0.0000000000        0.5028419174        0.3545331353
    Ru            0.5000000000        0.5140190826        0.3513242540
    O             0.2624215946        0.7038986844        0.3607737536
    O             0.7375784054        0.7038986844        0.3607737536
    O             0.0000000000        0.0017506033        0.4116916367
    O             0.5000000000        0.0174028268        0.4126769519
    O             0.0000000000        0.5043193894        0.4449227014
    O             0.5000000000        0.4977075848        0.4431607487
    Ru            0.0000000000        0.0033717749        0.5000010000
    Ru            0.5000000000        0.0045372573        0.5000010000
    O             0.2473866081        0.1985820444        0.5000010000
    O             0.7526133919        0.1985820444        0.5000010000
    Ru            0.2534607261        0.5036218455        0.5000010000
    Ru            0.7465392739        0.5036218455        0.5000010000
    O             0.2521554967        0.8078179632        0.5000010000
    O             0.7478445033        0.8078179632        0.5000010000
    O             0.0000000000        0.5043193894        0.5550782986
    O             0.5000000000        0.4977075848        0.5568402513
    O             0.0000000000        0.0017506033        0.5883093633
    O             0.5000000000        0.0174028268        0.5873240481
    Ru            0.2531947351        0.0068626799        0.6399655849
    Ru            0.7468052649        0.0068626799        0.6399655849
    O             0.2384385797        0.3101659762        0.6451070067
    O             0.7615614203        0.3101659762        0.6451070067
    Ru            0.0000000000        0.5028419174        0.6454678647
    Ru            0.5000000000        0.5140190826        0.6486767460
    O             0.2624215946        0.7038986844        0.6392272464
    O             0.7375784054        0.7038986844        0.6392272464
    O             0.0000000000       -0.0368881505        0.7060575059
    O             0.5000000000        0.0090415969        0.6995641263
    O             0.0000000000        0.5798654754        0.7229687118
    O             0.5000000000        0.4888818536        0.7264326937
    H             0.0000000000        0.0490839739        0.2576455909
    H             0.0000000000        0.0490839739        0.7423544091
    H             0.5000000000        0.1228424212        0.2719778550
    H             0.5000000000        0.1228424212        0.7280221450
    H             0.0000000000        0.8075173750        0.2806749271
    H             0.0000000000        0.8075173750        0.7193250729


K_POINTS automatic
2 2 1 1 1 0

CELL_PARAMETERS bohr
12.104053288299633 0.000000 0.000000
0.000000 11.761936877845498 0.000000
0.000000 0.000000 41.825308
