&control
 calculation = 'relax',
 restart_mode = 'from_scratch',
 prefix = 'RuO2-110-0-02',
 tstress = .FALSE.,
 tprnfor = .TRUE.,
 pseudo_dir = '/gpfs/group/ixd4/default/Simon/pseudopotentials/materialscloud/SSSP_1.3.0_PBE_efficiency',
 outdir = '/storage/home/mgm6007/ixd4/Maria/Strain0_Files/RuO2-110-0-02',
 forc_conv_thr = 1.0D-4,
 etot_conv_thr = 1.0D-4,
 nstep = 200
/
&system
 ibrav = 0,
 nat = 44
 ntyp = 3,
 ecutwfc = 50,
 ecutrho = 500,
 occupations = 'smearing',
 smearing = 'mv',
 degauss = 0.03,
 tot_charge = 0.00,
/
&electrons
 electron_maxstep = 100,
 scf_must_converge = .FALSE.,
 diagonalization = 'david',
 mixing_beta = 0.7,
 mixing_mode = 'local-TF',
 conv_thr = 1.0D-9
/
&ions
 ion_dynamics = 'bfgs'
/

ATOMIC_SPECIES
 O 15.999400 O.pbe-n-kjpaw_psl.0.1.UPF
 Ru 101.070000 Ru_ONCV_PBE-1.0.oncvpsp.upf
 H 1.007940 H.pbe-rrkjus_psl.1.0.0.UPF

ATOMIC_POSITIONS crystal
    O            -0.0009151546        0.4852771767        0.2714501016
    O             0.4953306455        0.5006418326        0.2727072238
    O             0.0010452691       -0.0020773049        0.2984806538
    O             0.4996925805       -0.0044163203        0.3095062582
    Ru            0.2539574757       -0.0018155165        0.3567729556
    Ru            0.7467204688       -0.0007271985        0.3563778438
    O             0.2481609150        0.3045709562        0.3590496718
    O             0.7517538181        0.3042862304        0.3567584979
    Ru           -0.0021680882        0.4988208267        0.3581232188
    Ru            0.4986916619        0.4971315119        0.3499190748
    O             0.2444492979        0.6923540331        0.3571045685
    O             0.7536006407        0.6907676211        0.3578944407
    O            -0.0008582084       -0.0015703502        0.4125524853
    O             0.5011843813       -0.0036522973        0.4123739978
    O             0.0035093926        0.4982626524        0.4464165443
    O             0.5023031083        0.4988719722        0.4410945957
    Ru           -0.0007766251       -0.0017459305        0.5000010000
    Ru            0.5026935292       -0.0011090742        0.5000010000
    O             0.2524756092        0.1907068073        0.5000010000
    O             0.7492020769        0.1942106216        0.5000010000
    Ru            0.2583259136        0.4984945117        0.5000010000
    Ru            0.7450040447        0.4992497860        0.5000010000
    O             0.2520665967        0.8068561935        0.5000010000
    O             0.7499089637        0.8027282136        0.5000010000
    O             0.0035093926        0.4982626524        0.5535844557
    O             0.5023031083        0.4988719722        0.5589064043
    O            -0.0008582084       -0.0015703502        0.5874485147
    O             0.5011843813       -0.0036522973        0.5876270022
    Ru            0.2539574757       -0.0018155165        0.6432280444
    Ru            0.7467204688       -0.0007271985        0.6436231562
    O             0.2481609150        0.3045709562        0.6409513282
    O             0.7517538181        0.3042862304        0.6432425021
    Ru           -0.0021680882        0.4988208267        0.6418777812
    Ru            0.4986916619        0.4971315119        0.6500819252
    O             0.2444492979        0.6923540331        0.6428964315
    O             0.7536006407        0.6907676211        0.6421065593
    O             0.0010452691       -0.0020773049        0.7015213462
    O             0.4996925805       -0.0044163203        0.6904957418
    O            -0.0009151546        0.4852771767        0.7285508984
    O             0.4953306455        0.5006418326        0.7272937762
    H             0.1147089590        0.5610110663        0.2529589526
    H             0.1147089590        0.5610110663        0.7470410474
    H             0.0020177824        0.1017845437        0.2667032569
    H             0.0020177824        0.1017845437        0.7332967431


K_POINTS automatic
2 2 1 1 1 0

CELL_PARAMETERS bohr
12.104053288299633 0.000000 0.000000
0.000000 11.761936877845498 0.000000
0.000000 0.000000 41.825308
