&control
 calculation = 'relax',
 restart_mode = 'from_scratch',
 verbosity = 'high',
 prefix = 'RuO2-110-0-',
 tstress = .FALSE.,
 tprnfor = .TRUE.,
 pseudo_dir = '/gpfs/group/ixd4/default/Simon/pseudopotentials/materialscloud/SSSP_1.3.0_PBE_efficiency',
 outdir = '/storage/home/mgm6007/ixd4/Maria/Strain1_Files/RuO2-110-0-',
 forc_conv_thr = 1.0D-4,
 etot_conv_thr = 1.0D-4,
 nstep = 200
/
&system
 ibrav = 0,
 nat = 40
 ntyp = 2,
 ecutwfc = 50,
 ecutrho = 500,
 occupations = 'smearing',
 smearing = 'mv',
 degauss = 0.03,
 tot_charge = 0.00,
/
&electrons
 electron_maxstep = 1000,
 diagonalization = 'david',
 mixing_beta = 0.7,
 mixing_mode = 'local-TF',
 conv_thr = 1.0D-9
/
&ions
 ion_dynamics = 'bfgs'
/

ATOMIC_SPECIES
 O 15.999400 O.pbe-n-kjpaw_psl.0.1.UPF
 Ru 101.070000 Ru_ONCV_PBE-1.0.oncvpsp.upf
 H 1.007940 H.pbe-rrkjus_psl.1.0.0.UPF

ATOMIC_POSITIONS crystal
 O        0.000000000   0.500000000   0.269591693
 O        0.500000000   0.500000000   0.269593342
 O        0.000000000   0.000000000   0.304057028
 O        0.500000000   0.000000000   0.304056859
 Ru       0.250000238  -0.000000000   0.353643419
 Ru       0.749999762   0.000000000   0.353643419
 O        0.250001189   0.308343063   0.358192154
 O        0.749998811   0.308343063   0.358192154
 Ru       0.000000000   0.500000000   0.349209002
 Ru       0.500000000   0.500000000   0.349210563
 O        0.250001189   0.691656937   0.358192154
 O        0.749998811   0.691656937   0.358192154
 O        0.000000000   0.000000000   0.412229841
 O        0.500000000   0.000000000   0.412229946
 O        0.000000000   0.500000000   0.443762099
 O        0.500000000   0.500000000   0.443775760
 Ru       0.000000000   0.000000000   0.500001000
 Ru       0.500000000   0.000000000   0.500001000
 O        0.249997754   0.193626929   0.500001000
 O        0.750002246   0.193626929   0.500001000
 Ru       0.249981512   0.500000000   0.500001000
 Ru       0.750018488   0.500000000   0.500001000
 O        0.249997754   0.806374071   0.500001000
 O        0.750002246   0.806374071   0.500001000
 O        0.000000000   0.500000000   0.556238901
 O        0.500000000   0.500000000   0.556225240
 O        0.000000000   0.000000000   0.587771159
 O        0.500000000   0.000000000   0.587771054
 Ru       0.250000238   0.000000000   0.646358581
 Ru       0.749999762  -0.000000000   0.646358581
 O        0.250001189   0.308343063   0.641809846
 O        0.749998811   0.308343063   0.641809846
 Ru       0.000000000   0.500000000   0.650792998
 Ru       0.500000000   0.500000000   0.650791437
 O        0.250001189   0.691656937   0.641809846
 O        0.749998811   0.691656937   0.641809846
 O        0.000000000   0.000000000   0.695943972
 O        0.500000000   0.000000000   0.695944141
 O        0.000000000   0.500000000   0.730409307
 O        0.500000000   0.500000000   0.730407658

K_POINTS automatic
2 2 1 1 1 0

CELL_PARAMETERS bohr
12.389315578758117 0.000000 0.000000
0.000000 11.209435458935166 0.000000
0.000000 0.000000 42.770171
