&control
 calculation = 'relax',
 restart_mode = 'from_scratch',
 prefix = 'RuO2-110-0-0124',
 tstress = .FALSE.,
 tprnfor = .TRUE.,
 pseudo_dir = '/gpfs/group/ixd4/default/Simon/pseudopotentials/materialscloud/SSSP_1.3.0_PBE_efficiency',
 outdir = '/storage/home/mgm6007/ixd4/Maria/Strain2_Files/RuO2-110-0-0124',
 forc_conv_thr = 1.0D-4,
 etot_conv_thr = 1.0D-4,
 nstep = 200
/
&system
 ibrav = 0,
 nat = 48
 ntyp = 3,
 ecutwfc = 50,
 ecutrho = 500,
 occupations = 'smearing',
 smearing = 'mv',
 degauss = 0.03,
 tot_charge = 0.00,
/
&electrons
 electron_maxstep = 100,
 scf_must_converge = .FALSE.,
 diagonalization = 'david',
 mixing_beta = 0.7,
 mixing_mode = 'local-TF',
 conv_thr = 1.0D-9
/
&ions
 ion_dynamics = 'bfgs'
/

ATOMIC_SPECIES
 O 15.999400 O.pbe-n-kjpaw_psl.0.1.UPF
 Ru 101.070000 Ru_ONCV_PBE-1.0.oncvpsp.upf
 H 1.007940 H.pbe-rrkjus_psl.1.0.0.UPF

ATOMIC_POSITIONS crystal
    O            -0.0011887604        0.5000000000        0.2669229245
    O             0.4904534611        0.5000000000        0.2673868078
    O            -0.0033638576        0.0000000000        0.2896353044
    O             0.4988140642        0.0000000000        0.3070053638
    Ru            0.2604723186        0.0000000000        0.3575663103
    Ru            0.7371644299        0.0000000000        0.3575294767
    O             0.2479429690        0.3118715530        0.3569212427
    O             0.7503531288        0.3120292301        0.3563794598
    Ru           -0.0005670589        0.5000000000        0.3583033636
    Ru            0.4989466787        0.5000000000        0.3560604715
    O             0.2479429690        0.6881284470        0.3569212427
    O             0.7503531288        0.6879707699        0.3563794598
    O            -0.0008445125        0.0000000000        0.4108263717
    O             0.4989711714        0.0000000000        0.4118185859
    O            -0.0008065965        0.5000000000        0.4458208076
    O             0.4994078496        0.5000000000        0.4442956113
    Ru           -0.0005481061        0.0000000000        0.5000010000
    Ru            0.4993659687        0.0000000000        0.5000010000
    O             0.2488142346        0.1879702809        0.5000010000
    O             0.7502704920        0.1879436252        0.5000010000
    Ru            0.2505241843        0.5000000000        0.5000010000
    Ru            0.7477133510        0.5000000000        0.5000010000
    O             0.2488142346        0.8120307191        0.5000010000
    O             0.7502704920        0.8120573748        0.5000010000
    O            -0.0008065965        0.5000000000        0.5541801924
    O             0.4994078496        0.5000000000        0.5557053887
    O            -0.0008445125        0.0000000000        0.5891746283
    O             0.4989711714        0.0000000000        0.5881824141
    Ru            0.2604723186        0.0000000000        0.6424346897
    Ru            0.7371644299        0.0000000000        0.6424715233
    O             0.2479429690        0.3118715530        0.6430797573
    O             0.7503531288        0.3120292301        0.6436215402
    Ru           -0.0005670589        0.5000000000        0.6416976364
    Ru            0.4989466787        0.5000000000        0.6439405285
    O             0.2479429690        0.6881284470        0.6430797573
    O             0.7503531288        0.6879707699        0.6436215402
    O            -0.0033638576        0.0000000000        0.7103666956
    O             0.4988140642        0.0000000000        0.6929966362
    O            -0.0011887604        0.5000000000        0.7330780755
    O             0.4904534611        0.5000000000        0.7326141922
    H             0.1427467327        0.5000000000        0.2533964146
    H             0.1427467327        0.5000000000        0.7466035854
    H             0.6321415018        0.5000000000        0.2521929320
    H             0.6321415018        0.5000000000        0.7478070680
    H            -0.0056410215        0.1326938679        0.2635891021
    H            -0.0056410215        0.1326938679        0.7364108979
    H            -0.0056410215        0.8673061321        0.2635891021
    H            -0.0056410215        0.8673061321        0.7364108979


K_POINTS automatic
2 2 1 1 1 0

CELL_PARAMETERS bohr
12.246684433528877 0.000000 0.000000
0.000000 11.485686168390332 0.000000
0.000000 0.000000 41.825308
