&control
 calculation = 'relax',
 restart_mode = 'from_scratch',
 prefix = 'RuO2-110-0-23',
 tstress = .FALSE.,
 tprnfor = .TRUE.,
 pseudo_dir = '/gpfs/group/ixd4/default/Simon/pseudopotentials/materialscloud/SSSP_1.3.0_PBE_efficiency',
 outdir = '/storage/home/mgm6007/ixd4/Maria/Strain1_Files/RuO2-110-0-23',
 forc_conv_thr = 1.0D-4,
 etot_conv_thr = 1.0D-4,
 nstep = 200
/
&system
 ibrav = 0,
 nat = 44
 ntyp = 3,
 ecutwfc = 50,
 ecutrho = 500,
 occupations = 'smearing',
 smearing = 'mv',
 degauss = 0.03,
 tot_charge = 0.00,
/
&electrons
 electron_maxstep = 100,
 scf_must_converge = .FALSE.,
 diagonalization = 'david',
 mixing_beta = 0.7,
 mixing_mode = 'local-TF',
 conv_thr = 1.0D-9
/
&ions
 ion_dynamics = 'bfgs'
/

ATOMIC_SPECIES
 O 15.999400 O.pbe-n-kjpaw_psl.0.1.UPF
 Ru 101.070000 Ru_ONCV_PBE-1.0.oncvpsp.upf
 H 1.007940 H.pbe-rrkjus_psl.1.0.0.UPF

ATOMIC_POSITIONS crystal
    O             0.0000000000        0.5061377852        0.2738093512
    O             0.5000000000        0.5061404027        0.2738093795
    O             0.0000000000        0.0093389230        0.3045284029
    O             0.5000000000        0.0093501951        0.3045289925
    Ru            0.2500000213        0.0086154222        0.3588717457
    Ru            0.7499999787        0.0086154222        0.3588717457
    O             0.2499970282        0.3205398757        0.3597343523
    O             0.7500029718        0.3205398757        0.3597343523
    Ru            0.0000000000        0.5085134105        0.3521476408
    Ru            0.5000000000        0.5085129414        0.3521476702
    O             0.2500030184        0.6970307362        0.3583943091
    O             0.7499969816        0.6970307362        0.3583943091
    O             0.0000000000        0.0092150460        0.4116806575
    O             0.5000000000        0.0092195810        0.4116808402
    O             0.0000000000        0.5141676198        0.4447695440
    O             0.5000000000        0.5141680091        0.4447695531
    Ru            0.0000000000        0.0148272630        0.5000010000
    Ru            0.5000000000        0.0148256565        0.5000010000
    O             0.2500009009        0.2008220883        0.5000010000
    O             0.7499990991        0.2008220883        0.5000010000
    Ru            0.2500000764        0.5150512320        0.5000010000
    Ru            0.7499999236        0.5150512320        0.5000010000
    O             0.2499985533        0.8290450699        0.5000010000
    O             0.7500014467        0.8290450699        0.5000010000
    O             0.0000000000        0.5141676198        0.5552314560
    O             0.5000000000        0.5141680091        0.5552314469
    O             0.0000000000        0.0092150460        0.5883203425
    O             0.5000000000        0.0092195810        0.5883201598
    Ru            0.2500000213        0.0086154222        0.6411292543
    Ru            0.7499999787        0.0086154222        0.6411292543
    O             0.2499970282        0.3205398757        0.6402666477
    O             0.7500029718        0.3205398757        0.6402666477
    Ru            0.0000000000        0.5085134105        0.6478533592
    Ru            0.5000000000        0.5085129414        0.6478533298
    O             0.2500030184        0.6970307362        0.6416066909
    O             0.7499969816        0.6970307362        0.6416066909
    O             0.0000000000        0.0093389230        0.6954735971
    O             0.5000000000        0.0093501951        0.6954730075
    O             0.0000000000        0.5061377852        0.7261916488
    O             0.5000000000        0.5061404027        0.7261916205
    H             0.0000000000        0.0107761754        0.2605470181
    H             0.0000000000        0.0107761754        0.7394529819
    H             0.5000000000        0.0107759926        0.2605466045
    H             0.5000000000        0.0107759926        0.7394533955


K_POINTS automatic
2 2 1 1 1 0

CELL_PARAMETERS bohr
12.389315578758117 0.000000 0.000000
0.000000 11.209435458935166 0.000000
0.000000 0.000000 41.825308
