&control
 calculation = 'relax',
 restart_mode = 'from_scratch',
 prefix = 'RuO2-110-0-02',
 tstress = .FALSE.,
 tprnfor = .TRUE.,
 pseudo_dir = '/gpfs/group/ixd4/default/Simon/pseudopotentials/materialscloud/SSSP_1.3.0_PBE_efficiency',
 outdir = '/storage/home/mgm6007/ixd4/Maria/Strain2_Files/RuO2-110-0-02',
 forc_conv_thr = 1.0D-4,
 etot_conv_thr = 1.0D-4,
 nstep = 200
/
&system
 ibrav = 0,
 nat = 44
 ntyp = 3,
 ecutwfc = 50,
 ecutrho = 500,
 occupations = 'smearing',
 smearing = 'mv',
 degauss = 0.03,
 tot_charge = 0.00,
/
&electrons
 electron_maxstep = 100,
 scf_must_converge = .FALSE.,
 diagonalization = 'david',
 mixing_beta = 0.7,
 mixing_mode = 'local-TF',
 conv_thr = 1.0D-9
/
&ions
 ion_dynamics = 'bfgs'
/

ATOMIC_SPECIES
 O 15.999400 O.pbe-n-kjpaw_psl.0.1.UPF
 Ru 101.070000 Ru_ONCV_PBE-1.0.oncvpsp.upf
 H 1.007940 H.pbe-rrkjus_psl.1.0.0.UPF

ATOMIC_POSITIONS crystal
    O            -0.0066157752        0.4756316181        0.2711057729
    O             0.4952535418        0.4994746495        0.2727223717
    O             0.0001672495       -0.0002370645        0.2997461988
    O             0.4992522848       -0.0009144183        0.3079022212
    Ru            0.2564083216        0.0009840037        0.3565697100
    Ru            0.7435393353        0.0011352931        0.3563510973
    O             0.2488258617        0.3113410912        0.3601790473
    O             0.7516632805        0.3110454481        0.3586004093
    Ru           -0.0003449440        0.5004553114        0.3583813974
    Ru            0.5007706541        0.5004395914        0.3503317987
    O             0.2455539982        0.6907702543        0.3574268028
    O             0.7536314479        0.6898183893        0.3579410976
    O            -0.0006325806        0.0000954438        0.4118858823
    O             0.5007238383       -0.0010264501        0.4116578141
    O             0.0022200762        0.5014858143        0.4466590967
    O             0.5019938649        0.5022253520        0.4425246890
    Ru            0.0006383197        0.0003815758        0.5000010000
    Ru            0.5010648239        0.0011733416        0.5000010000
    O             0.2505666837        0.1890778906        0.5000010000
    O             0.7505787401        0.1890475352        0.5000010000
    Ru            0.2566501979        0.5008877755        0.5000010000
    Ru            0.7472294358        0.5010428461        0.5000010000
    O             0.2509383837        0.8128848923        0.5000010000
    O             0.7505729173        0.8125441514        0.5000010000
    O             0.0022200762        0.5014858143        0.5533419033
    O             0.5019938649        0.5022253520        0.5574763110
    O            -0.0006325806        0.0000954438        0.5881151177
    O             0.5007238383       -0.0010264501        0.5883431859
    Ru            0.2564083216        0.0009840037        0.6434312900
    Ru            0.7435393353        0.0011352931        0.6436499027
    O             0.2488258617        0.3113410912        0.6398219527
    O             0.7516632805        0.3110454481        0.6414005907
    Ru           -0.0003449440        0.5004553114        0.6416196026
    Ru            0.5007706541        0.5004395914        0.6496692013
    O             0.2455539982        0.6907702543        0.6425741972
    O             0.7536314479        0.6898183893        0.6420599024
    O             0.0001672495       -0.0002370645        0.7002558012
    O             0.4992522848       -0.0009144183        0.6920997788
    O            -0.0066157752        0.4756316181        0.7288952271
    O             0.4952535418        0.4994746495        0.7272786283
    H             0.1223682323        0.5180954296        0.2512438475
    H             0.1223682323        0.5180954296        0.7487561525
    H            -0.0012634385        0.1098772390        0.2672454367
    H            -0.0012634385        0.1098772390        0.7327545633


K_POINTS automatic
2 2 1 1 1 0

CELL_PARAMETERS bohr
12.246684433528877 0.000000 0.000000
0.000000 11.485686168390332 0.000000
0.000000 0.000000 41.825308
