&control
 calculation = 'relax',
 restart_mode = 'from_scratch',
 prefix = 'RuO2-110-0-0234',
 tstress = .FALSE.,
 tprnfor = .TRUE.,
 pseudo_dir = '/gpfs/group/ixd4/default/Simon/pseudopotentials/materialscloud/SSSP_1.3.0_PBE_efficiency',
 outdir = '/storage/home/mgm6007/ixd4/Maria/Strain0_Files/RuO2-110-0-0234',
 forc_conv_thr = 1.0D-4,
 etot_conv_thr = 1.0D-4,
 nstep = 200
/
&system
 ibrav = 0,
 nat = 48
 ntyp = 3,
 ecutwfc = 50,
 ecutrho = 500,
 occupations = 'smearing',
 smearing = 'mv',
 degauss = 0.03,
 tot_charge = 0.00,
/
&electrons
 electron_maxstep = 100,
 scf_must_converge = .FALSE.,
 diagonalization = 'david',
 mixing_beta = 0.7,
 mixing_mode = 'local-TF',
 conv_thr = 1.0D-9
/
&ions
 ion_dynamics = 'bfgs'
/

ATOMIC_SPECIES
 O 15.999400 O.pbe-n-kjpaw_psl.0.1.UPF
 Ru 101.070000 Ru_ONCV_PBE-1.0.oncvpsp.upf
 H 1.007940 H.pbe-rrkjus_psl.1.0.0.UPF

ATOMIC_POSITIONS crystal
    O             0.0366874331        0.4444846799        0.2633214152
    O             0.4668625923        0.4670772960        0.2723857350
    O            -0.0033495843        0.0128480335        0.2976996639
    O             0.4942207352        0.0003905689        0.3004812279
    Ru            0.2448458600       -0.0078853608        0.3591447993
    Ru            0.7461415440       -0.0079883004        0.3582298160
    O             0.2426406895        0.2927934984        0.3618676777
    O             0.7512519732        0.2981234277        0.3578309239
    Ru            0.0008427733        0.4905171287        0.3611556303
    Ru            0.5001680416        0.4915456027        0.3514819885
    O             0.2401917193        0.6909774137        0.3554801332
    O             0.7525168917        0.6852942043        0.3531317923
    O            -0.0069499776       -0.0107744244        0.4119556157
    O             0.4975397381       -0.0094084636        0.4115761024
    O            -0.0064012589        0.5013845827        0.4466433709
    O             0.4917455006        0.5009441673        0.4410104197
    Ru           -0.0086942456       -0.0014840625        0.5000010000
    Ru            0.4968866080       -0.0015273882        0.5000010000
    O             0.2452539213        0.1899630081        0.5000010000
    O             0.7425585929        0.1968613633        0.5000010000
    Ru            0.2506427800        0.4995454046        0.5000010000
    Ru            0.7392136934        0.4994363045        0.5000010000
    O             0.2460548354        0.8081969735        0.5000010000
    O             0.7419649247        0.8012934419        0.5000010000
    O            -0.0064012589        0.5013845827        0.5533576291
    O             0.4917455006        0.5009441673        0.5589905803
    O            -0.0069499776       -0.0107744244        0.5880453843
    O             0.4975397381       -0.0094084636        0.5884248976
    Ru            0.2448458600       -0.0078853608        0.6408562007
    Ru            0.7461415440       -0.0079883004        0.6417711840
    O             0.2426406895        0.2927934984        0.6381333223
    O             0.7512519732        0.2981234277        0.6421700761
    Ru            0.0008427733        0.4905171287        0.6388453697
    Ru            0.5001680416        0.4915456027        0.6485190115
    O             0.2401917193        0.6909774137        0.6445208668
    O             0.7525168917        0.6852942043        0.6468692077
    O            -0.0033495843        0.0128480335        0.7023023361
    O             0.4942207352        0.0003905689        0.6995207721
    O             0.0366874331        0.4444846799        0.7366795848
    O             0.4668625923        0.4670772960        0.7276152650
    H             0.1929542751        0.4554693990        0.2582073992
    H             0.1929542751        0.4554693990        0.7417926008
    H             0.0077342826        0.2968425169        0.2601869127
    H             0.0077342826        0.2968425169        0.7398130873
    H             0.4930952273        0.1175492761        0.2731089060
    H             0.4930952273        0.1175492761        0.7268910940
    H            -0.0020440110        0.9078892306        0.2665129569
    H            -0.0020440110        0.9078892306        0.7334870431


K_POINTS automatic
2 2 1 1 1 0

CELL_PARAMETERS bohr
12.104053288299633 0.000000 0.000000
0.000000 11.761936877845498 0.000000
0.000000 0.000000 41.825308
