&control
 calculation = 'relax',
 restart_mode = 'from_scratch',
 prefix = 'RuO2-110-0-2',
 tstress = .FALSE.,
 tprnfor = .TRUE.,
 pseudo_dir = '/gpfs/group/ixd4/default/Simon/pseudopotentials/materialscloud/SSSP_1.3.0_PBE_efficiency',
 outdir = '/storage/home/mgm6007/ixd4/Maria/Strain1_Files/RuO2-110-0-2',
 forc_conv_thr = 1.0D-4,
 etot_conv_thr = 1.0D-4,
 nstep = 200
/
&system
 ibrav = 0,
 nat = 42
 ntyp = 3,
 ecutwfc = 50,
 ecutrho = 500,
 occupations = 'smearing',
 smearing = 'mv',
 degauss = 0.03,
 tot_charge = 0.00,
/
&electrons
 electron_maxstep = 100,
 scf_must_converge = .FALSE.,
 diagonalization = 'david',
 mixing_beta = 0.7,
 mixing_mode = 'local-TF',
 conv_thr = 1.0D-9
/
&ions
 ion_dynamics = 'bfgs'
/

ATOMIC_SPECIES
 O 15.999400 O.pbe-n-kjpaw_psl.0.1.UPF
 Ru 101.070000 Ru_ONCV_PBE-1.0.oncvpsp.upf
 H 1.007940 H.pbe-rrkjus_psl.1.0.0.UPF

ATOMIC_POSITIONS crystal
    O             0.0000000000        0.5062764301        0.2759097514
    O             0.5000000000        0.5057735616        0.2753308422
    O             0.0000000000        0.0054697995        0.3028802928
    O             0.5000000000        0.0051396631        0.3069796691
    Ru            0.2582225665        0.0054703351        0.3565429113
    Ru            0.7417774335        0.0054703351        0.3565429113
    O             0.2498123901        0.3183375000        0.3607014828
    O             0.7501876099        0.3183375000        0.3607014828
    Ru            0.0000000000        0.5055343883        0.3536300008
    Ru            0.5000000000        0.5054785085        0.3528873951
    O             0.2499518234        0.6926166471        0.3609183978
    O             0.7500481766        0.6926166471        0.3609183978
    O             0.0000000000        0.0055086402        0.4122083863
    O             0.5000000000        0.0056777094        0.4112067803
    O             0.0000000000        0.5053713803        0.4454152804
    O             0.5000000000        0.5051484322        0.4455643504
    Ru            0.0000000000        0.0052108756        0.5000010000
    Ru            0.5000000000        0.0054343560        0.5000010000
    O             0.2500617578        0.1915104046        0.5000010000
    O             0.7499382422        0.1915104046        0.5000010000
    Ru            0.2505357159        0.5052888537        0.5000010000
    Ru            0.7494642841        0.5052888537        0.5000010000
    O             0.2503434088        0.8190806259        0.5000010000
    O             0.7496565912        0.8190806259        0.5000010000
    O             0.0000000000        0.5053713803        0.5545857196
    O             0.5000000000        0.5051484322        0.5544366496
    O             0.0000000000        0.0055086402        0.5877926137
    O             0.5000000000        0.0056777094        0.5887942197
    Ru            0.2582225665        0.0054703351        0.6434580887
    Ru            0.7417774335        0.0054703351        0.6434580887
    O             0.2498123901        0.3183375000        0.6392995172
    O             0.7501876099        0.3183375000        0.6392995172
    Ru            0.0000000000        0.5055343883        0.6463709992
    Ru            0.5000000000        0.5054785085        0.6471136049
    O             0.2499518234        0.6926166471        0.6390826022
    O             0.7500481766        0.6926166471        0.6390826022
    O             0.0000000000        0.0054697995        0.6971217072
    O             0.5000000000        0.0051396631        0.6930223309
    O             0.0000000000        0.5062764301        0.7240912486
    O             0.5000000000        0.5057735616        0.7246701578
    H             0.0000000000        0.0047870223        0.2586680190
    H             0.0000000000        0.0047870223        0.7413319810


K_POINTS automatic
2 2 1 1 1 0

CELL_PARAMETERS bohr
12.389315578758117 0.000000 0.000000
0.000000 11.209435458935166 0.000000
0.000000 0.000000 41.825308
