&control
 calculation = 'relax',
 restart_mode = 'from_scratch',
 prefix = 'RuO2-110-0-024',
 tstress = .FALSE.,
 tprnfor = .TRUE.,
 pseudo_dir = '/gpfs/group/ixd4/default/Simon/pseudopotentials/materialscloud/SSSP_1.3.0_PBE_efficiency',
 outdir = '/storage/home/mgm6007/ixd4/Maria/Strain2_Files/RuO2-110-0-024',
 forc_conv_thr = 1.0D-4,
 etot_conv_thr = 1.0D-4,
 nstep = 200
/
&system
 ibrav = 0,
 nat = 46
 ntyp = 3,
 ecutwfc = 50,
 ecutrho = 500,
 occupations = 'smearing',
 smearing = 'mv',
 degauss = 0.03,
 tot_charge = 0.00,
/
&electrons
 electron_maxstep = 100,
 scf_must_converge = .FALSE.,
 diagonalization = 'david',
 mixing_beta = 0.7,
 mixing_mode = 'local-TF',
 conv_thr = 1.0D-9
/
&ions
 ion_dynamics = 'bfgs'
/

ATOMIC_SPECIES
 O 15.999400 O.pbe-n-kjpaw_psl.0.1.UPF
 Ru 101.070000 Ru_ONCV_PBE-1.0.oncvpsp.upf
 H 1.007940 H.pbe-rrkjus_psl.1.0.0.UPF

ATOMIC_POSITIONS crystal
    O             0.0001213403        0.5000000000        0.2687719618
    O             0.4879987733        0.5000000000        0.2717962912
    O            -0.0027234522        0.0000000000        0.2898703663
    O             0.4988493751        0.0000000000        0.3067056128
    Ru            0.2616680044        0.0000000000        0.3580340920
    Ru            0.7375317002        0.0000000000        0.3576589647
    O             0.2471993684        0.3094716629        0.3583475955
    O             0.7528750122        0.3104729433        0.3571490088
    Ru            0.0006495095        0.5000000000        0.3590782273
    Ru            0.5014979408        0.5000000000        0.3502195265
    O             0.2471993684        0.6905283371        0.3583475955
    O             0.7528750122        0.6895270567        0.3571490088
    O            -0.0013494917        0.0000000000        0.4108476038
    O             0.4998548427        0.0000000000        0.4122474630
    O             0.0009982397        0.5000000000        0.4469776298
    O             0.5008252478        0.5000000000        0.4419296027
    Ru            0.0001499703        0.0000000000        0.5000010000
    Ru            0.5002532695        0.0000000000        0.5000010000
    O             0.2494092040        0.1880249565        0.5000010000
    O             0.7511520431        0.1881515430        0.5000010000
    Ru            0.2553663279        0.5000000000        0.5000010000
    Ru            0.7466216659        0.5000000000        0.5000010000
    O             0.2494092040        0.8119760435        0.5000010000
    O             0.7511520431        0.8118494570        0.5000010000
    O             0.0009982397        0.5000000000        0.5530233702
    O             0.5008252478        0.5000000000        0.5580713973
    O            -0.0013494917        0.0000000000        0.5891533962
    O             0.4998548427        0.0000000000        0.5877535370
    Ru            0.2616680044        0.0000000000        0.6419669080
    Ru            0.7375317002        0.0000000000        0.6423420353
    O             0.2471993684        0.3094716629        0.6416534045
    O             0.7528750122        0.3104729433        0.6428519912
    Ru            0.0006495095        0.5000000000        0.6409227727
    Ru            0.5014979408        0.5000000000        0.6497814735
    O             0.2471993684        0.6905283371        0.6416534045
    O             0.7528750122        0.6895270567        0.6428519912
    O            -0.0027234522        0.0000000000        0.7101316337
    O             0.4988493751        0.0000000000        0.6932963872
    O             0.0001213403        0.5000000000        0.7312290382
    O             0.4879987733        0.5000000000        0.7282047088
    H             0.1429768420        0.5000000000        0.2545579775
    H             0.1429768420        0.5000000000        0.7454420225
    H            -0.0065847485        0.1321032576        0.2636282148
    H            -0.0065847485        0.1321032576        0.7363717852
    H            -0.0065847485        0.8678967424        0.2636282148
    H            -0.0065847485        0.8678967424        0.7363717852


K_POINTS automatic
2 2 1 1 1 0

CELL_PARAMETERS bohr
12.246684433528877 0.000000 0.000000
0.000000 11.485686168390332 0.000000
0.000000 0.000000 41.825308
